Nickel zinc boride (2/1/1)              
   1.00000000000000     
     9.5790850171827522    0.0000000000000000    0.0237822709446448
     0.0000000000000000    2.7228796245789906    0.0000000000000000
    -0.6139857822200362    0.0000000000000000   24.0056794508204021
   Ni   Zn   B    H 
    16     8     8     1
Selective dynamics
Direct
  0.4592499247240980  0.0000000000000000  0.0497700209136553   F   F   F
  0.4612017431648354  0.0000000000000000  0.3006640682421562   F   F   F
  0.5407500499444780  0.0000000000000000  0.2002299770999585   F   F   F
  0.5283282795615989  0.0000000000000000  0.4572489368631238   F   F   F
  0.9592498749099718  0.4999999999092495  0.0497700209136553   F   F   F
  0.9612016435104564  0.4999999999092495  0.3006640682421562   F   F   F
  0.0407500312152038  0.4999999999092495  0.2002299770999585   F   F   F
  0.0283283262411231  0.4999999999092495  0.4572489368631238   F   F   F
  0.7293001542297048  0.0000000000000000  0.0408550209816525   F   F   F
  0.7295461573675937  0.0000000000000000  0.2940183793598337   F   F   F
  0.2706999244970234  0.0000000000000000  0.2091450393090142   F   F   F
  0.2556396239387695  0.0000000000000000  0.4763349436281459   F   F   F
  0.2293000545230797  0.4999999999092495  0.0408550209816525   F   F   F
  0.2295460700949050  0.4999999999092495  0.2940183793598337   F   F   F
  0.7706999245231430  0.4999999999092495  0.2091450393090142   F   F   F
  0.7556395989925164  0.4999999999092495  0.4763349436281459   F   F   F
  0.1308299397788630  0.0000000000000000  0.1166799930739941   F   F   F
  0.1243537182371384  0.0000000000000000  0.3717542725132219   F   F   F
  0.8691700853247255  0.0000000000000000  0.1333200148872322   F   F   F
  0.8611792054493250  0.0000000000000000  0.3843902253623952   F   F   F
  0.6308299398049897  0.4999999999092495  0.1166799930739941   F   F   F
  0.6243535438746193  0.4999999999092495  0.3717542725132219   F   F   F
  0.3691700355628385  0.4999999999092495  0.1333200148872322   F   F   F
  0.3611791307150725  0.4999999999092495  0.3843902253623952   F   F   F
  0.0931000166284335  0.0000000000000000  0.0128750132297739   F   F   F
  0.0940794241881306  0.0000000000000000  0.2630665829037113   F   F   F
  0.9068999904023940  0.0000000000000000  0.2371250022130553   F   F   F
  0.8977835447168303  0.0000000000000000  0.4771662725926475   F   F   F
  0.5930999855174619  0.4999999999092495  0.0128750132297739   F   F   F
  0.5940794989223903  0.4999999999092495  0.2630665829037113   F   F   F
  0.4068999405360216  0.4999999999092495  0.2371250022130553   F   F   F
  0.3977835696630834  0.4999999999092495  0.4771662725926475   F   F   F
  0.9040428959279773  0.4999999999092495  0.5128958118538886   F   F   T
 
  0.00000000E+00  0.00000000E+00  0.00000000E+00
  0.00000000E+00  0.00000000E+00  0.00000000E+00
  0.00000000E+00  0.00000000E+00  0.00000000E+00
  0.00000000E+00  0.00000000E+00  0.00000000E+00
  0.00000000E+00  0.00000000E+00  0.00000000E+00
  0.00000000E+00  0.00000000E+00  0.00000000E+00
  0.00000000E+00  0.00000000E+00  0.00000000E+00
  0.00000000E+00  0.00000000E+00  0.00000000E+00
  0.00000000E+00  0.00000000E+00  0.00000000E+00
  0.00000000E+00  0.00000000E+00  0.00000000E+00
  0.00000000E+00  0.00000000E+00  0.00000000E+00
  0.00000000E+00  0.00000000E+00  0.00000000E+00
  0.00000000E+00  0.00000000E+00  0.00000000E+00
  0.00000000E+00  0.00000000E+00  0.00000000E+00
  0.00000000E+00  0.00000000E+00  0.00000000E+00
  0.00000000E+00  0.00000000E+00  0.00000000E+00
  0.00000000E+00  0.00000000E+00  0.00000000E+00
  0.00000000E+00  0.00000000E+00  0.00000000E+00
  0.00000000E+00  0.00000000E+00  0.00000000E+00
  0.00000000E+00  0.00000000E+00  0.00000000E+00
  0.00000000E+00  0.00000000E+00  0.00000000E+00
  0.00000000E+00  0.00000000E+00  0.00000000E+00
  0.00000000E+00  0.00000000E+00  0.00000000E+00
  0.00000000E+00  0.00000000E+00  0.00000000E+00
  0.00000000E+00  0.00000000E+00  0.00000000E+00
  0.00000000E+00  0.00000000E+00  0.00000000E+00
  0.00000000E+00  0.00000000E+00  0.00000000E+00
  0.00000000E+00  0.00000000E+00  0.00000000E+00
  0.00000000E+00  0.00000000E+00  0.00000000E+00
  0.00000000E+00  0.00000000E+00  0.00000000E+00
  0.00000000E+00  0.00000000E+00  0.00000000E+00
  0.00000000E+00  0.00000000E+00  0.00000000E+00
  0.00000000E+00  0.00000000E+00  0.00000000E+00
