Nickel zinc boride (3/1/2)              
   1.00000000000000     
     9.5121148175115877    0.0000000000000000   -0.0260453528150214
     0.0000000000000000    2.8420565344871647    0.0000000000000000
    -6.5872698760515691    0.0000000000000000   32.9687200094820483
   Ni   Zn   B 
    26     8    16
Selective dynamics
Direct
  0.2219900273836188  0.4999999834549271  0.2403975079171659   F   F   F
  0.2307148349205654  0.4999999834549271  0.4947683350193109   T   T   T
  0.7844100041948820  0.4999999834549271  0.1147625007277568   F   F   F
  0.7861593658947713  0.4999999834549271  0.3663375247792954   T   T   T
  0.7219900082092678  0.0000000000000000  0.2403975079171659   F   F   F
  0.7307148157462147  0.0000000000000000  0.4947683350193109   T   T   T
  0.2844100233692330  0.0000000000000000  0.1147625007277568   F   F   F
  0.2861593850691218  0.0000000000000000  0.3663375247792954   T   T   T
  0.4999999808256490  0.4999999834549271  0.0000000000000000   F   F   F
  0.5063167206839151  0.4999999834549271  0.5004200569738468   T   T   T
  0.4987794787867287  0.4999999834549271  0.2505033967112957   T   T   T
  0.5063999519034823  0.4999999834549271  0.1051600019713206   F   F   F
  0.5100795100925616  0.4999999834549271  0.3578006938909504   T   T   T
  0.0000000000000000  0.0000000000000000  0.0000000000000000   F   F   F
  0.0063167398582661  0.0000000000000000  0.5004200569738468   T   T   T
  0.9987794979610798  0.0000000000000000  0.2505033967112957   T   T   T
  0.0063999710778333  0.0000000000000000  0.1051600019713206   F   F   F
  0.0100795292669127  0.0000000000000000  0.3578006938909504   T   T   T
  0.6421399499849443  0.4999999834549271  0.1783425162601802   F   F   F
  0.6439122546911714  0.4999999834549271  0.4322452104695310   T   T   T
  0.3642599764421988  0.4999999834549271  0.1768174923847425   F   F   F
  0.3648708983128058  0.4999999834549271  0.4288704409848821   T   T   T
  0.1421398640079374  0.0000000000000000  0.1783425162601802   F   F   F
  0.1439121687141643  0.0000000000000000  0.4322452104695310   T   T   T
  0.8642599572678478  0.0000000000000000  0.1768174923847425   F   F   F
  0.8648709842898124  0.0000000000000000  0.4288704409848821   T   T   T
  0.1416500453426153  0.4999999834549271  0.0589150163566927   F   F   F
  0.1412742176959566  0.4999999834549271  0.3100424886104787   T   T   T
  0.8647499925378810  0.4999999834549271  0.0462449856146279   F   F   F
  0.8651801523746652  0.4999999834549271  0.2975360821837916   T   T   T
  0.6416500261682643  0.0000000000000000  0.0589150163566927   F   F   F
  0.6412741985216058  0.0000000000000000  0.3100424886104787   T   T   T
  0.3647500117122320  0.0000000000000000  0.0462449856146279   F   F   F
  0.3651800663976513  0.0000000000000000  0.2975360821837916   T   T   T
  0.1581999882041103  0.4999999834549271  0.1313550093182130   F   F   F
  0.1611547617901549  0.4999999834549271  0.3845154275324650   T   T   T
  0.8482000433743977  0.4999999834549271  0.2238049993267097   F   F   F
  0.8539792677388045  0.4999999834549271  0.4789939252122457   T   T   T
  0.6581999690297593  0.0000000000000000  0.1313550093182130   F   F   F
  0.6611548477671620  0.0000000000000000  0.3845154275324650   T   T   T
  0.3481999573973837  0.0000000000000000  0.2238049993267097   F   F   F
  0.3539792869131552  0.0000000000000000  0.4789939252122457   T   T   T
  0.0177000054594032  0.4999999834549271  0.2055549913204118   F   F   F
  0.0239897851773163  0.4999999834549271  0.4593444863753190   T   T   T
  0.9886999003454875  0.4999999834549271  0.1496049871272191   F   F   F
  0.9891668187713428  0.4999999834549271  0.4025831680311655   T   T   T
  0.5176998811336944  0.0000000000000000  0.2055549913204118   F   F   F
  0.5239896608516074  0.0000000000000000  0.4593444863753190   T   T   T
  0.4887000246711963  0.0000000000000000  0.1496049871272191   F   F   F
  0.4891669430970584  0.0000000000000000  0.4025831680311655   T   T   T
 
  0.00000000E+00  0.00000000E+00  0.00000000E+00
  0.00000000E+00  0.00000000E+00  0.00000000E+00
  0.00000000E+00  0.00000000E+00  0.00000000E+00
  0.00000000E+00  0.00000000E+00  0.00000000E+00
  0.00000000E+00  0.00000000E+00  0.00000000E+00
  0.00000000E+00  0.00000000E+00  0.00000000E+00
  0.00000000E+00  0.00000000E+00  0.00000000E+00
  0.00000000E+00  0.00000000E+00  0.00000000E+00
  0.00000000E+00  0.00000000E+00  0.00000000E+00
  0.00000000E+00  0.00000000E+00  0.00000000E+00
  0.00000000E+00  0.00000000E+00  0.00000000E+00
  0.00000000E+00  0.00000000E+00  0.00000000E+00
  0.00000000E+00  0.00000000E+00  0.00000000E+00
  0.00000000E+00  0.00000000E+00  0.00000000E+00
  0.00000000E+00  0.00000000E+00  0.00000000E+00
  0.00000000E+00  0.00000000E+00  0.00000000E+00
  0.00000000E+00  0.00000000E+00  0.00000000E+00
  0.00000000E+00  0.00000000E+00  0.00000000E+00
  0.00000000E+00  0.00000000E+00  0.00000000E+00
  0.00000000E+00  0.00000000E+00  0.00000000E+00
  0.00000000E+00  0.00000000E+00  0.00000000E+00
  0.00000000E+00  0.00000000E+00  0.00000000E+00
  0.00000000E+00  0.00000000E+00  0.00000000E+00
  0.00000000E+00  0.00000000E+00  0.00000000E+00
  0.00000000E+00  0.00000000E+00  0.00000000E+00
  0.00000000E+00  0.00000000E+00  0.00000000E+00
  0.00000000E+00  0.00000000E+00  0.00000000E+00
  0.00000000E+00  0.00000000E+00  0.00000000E+00
  0.00000000E+00  0.00000000E+00  0.00000000E+00
  0.00000000E+00  0.00000000E+00  0.00000000E+00
  0.00000000E+00  0.00000000E+00  0.00000000E+00
  0.00000000E+00  0.00000000E+00  0.00000000E+00
  0.00000000E+00  0.00000000E+00  0.00000000E+00
  0.00000000E+00  0.00000000E+00  0.00000000E+00
  0.00000000E+00  0.00000000E+00  0.00000000E+00
  0.00000000E+00  0.00000000E+00  0.00000000E+00
  0.00000000E+00  0.00000000E+00  0.00000000E+00
  0.00000000E+00  0.00000000E+00  0.00000000E+00
  0.00000000E+00  0.00000000E+00  0.00000000E+00
  0.00000000E+00  0.00000000E+00  0.00000000E+00
  0.00000000E+00  0.00000000E+00  0.00000000E+00
  0.00000000E+00  0.00000000E+00  0.00000000E+00
  0.00000000E+00  0.00000000E+00  0.00000000E+00
  0.00000000E+00  0.00000000E+00  0.00000000E+00
  0.00000000E+00  0.00000000E+00  0.00000000E+00
  0.00000000E+00  0.00000000E+00  0.00000000E+00
  0.00000000E+00  0.00000000E+00  0.00000000E+00
  0.00000000E+00  0.00000000E+00  0.00000000E+00
  0.00000000E+00  0.00000000E+00  0.00000000E+00
  0.00000000E+00  0.00000000E+00  0.00000000E+00
