Nickel zinc boride (3/1/2)              
   1.00000000000000     
     9.5121507644999994    0.0000000000000000    0.0000000000000000
     0.0000000000000000    2.8420565128000002    0.0000000000000000
    -6.6775160995000000    0.0000000000000000   32.9505610662000024
   Ni   Zn   B    H 
    26     8    16     1
Selective dynamics
Direct
  0.2219900548478719  0.4999999579881660  0.2403975204272157   F   F   F
  0.2328866869706743  0.4999999579881660  0.4949851525328040   T   T   T
  0.7844100220414916  0.4999999579881660  0.1147625039647338   F   F   F
  0.7924904698931177  0.4999999579881660  0.3672133506069610   T   T   T
  0.7219900298009634  0.0000000000000000  0.2403975204272157   F   F   F
  0.7357270261671996  0.0000000000000000  0.4952443608311140   T   T   T
  0.2844100345780873  0.0000000000000000  0.1147625039647338   F   F   F
  0.2922665368606144  0.0000000000000000  0.3661638776307841   T   T   T
  0.4999999498273269  0.4999999579881660  0.0000000000000000   F   F   F
  0.5107837004303205  0.4999999579881660  0.5005067588085276   T   T   T
  0.4996668435344349  0.4999999579881660  0.2505547939837462   T   T   T
  0.5063999610079790  0.4999999579881660  0.1051600064726799   F   F   F
  0.5161319378046153  0.4999999579881660  0.3581211554450595   T   T   T
  0.0000000000000000  0.0000000000000000  0.0000000000000000   F   F   F
  0.0153480855059104  0.0000000000000000  0.5022562164441964   T   T   T
  0.9991131828438734  0.0000000000000000  0.2504167239558859   T   T   T
  0.0063999735445748  0.0000000000000000  0.1051600064726799   F   F   F
  0.0154446565867044  0.0000000000000000  0.3573437911841408   T   T   T
  0.6421399887681858  0.4999999579881660  0.1783425262226572   F   F   F
  0.6508913404954733  0.4999999579881660  0.4325319225402243   T   T   T
  0.3642600128490372  0.4999999579881660  0.1768174981692923   F   F   F
  0.3695554037996971  0.4999999579881660  0.4290131779407000   T   T   T
  0.1421398634810629  0.0000000000000000  0.1783425262226572   F   F   F
  0.1494969793661973  0.0000000000000000  0.4314579507382891   T   T   T
  0.8642599627814960  0.0000000000000000  0.1768174981692923   F   F   F
  0.8737827890681551  0.0000000000000000  0.4305450792565066   T   T   T
  0.1416500543789141  0.4999999579881660  0.0589150170796771   F   F   F
  0.1453177375784414  0.4999999579881660  0.3097061202434536   T   T   T
  0.8647499291719924  0.4999999579881660  0.0462449857511871   F   F   F
  0.8683737887164957  0.4999999579881660  0.2976042963796873   T   T   T
  0.6416500293319984  0.0000000000000000  0.0589150170796771   F   F   F
  0.6459905416609183  0.0000000000000000  0.3104989737599821   T   T   T
  0.3647500043652911  0.0000000000000000  0.0462449857511871   F   F   F
  0.3696515970810303  0.0000000000000000  0.2975743447631054   T   T   T
  0.1581999814682220  0.4999999579881660  0.1313550112941684   F   F   F
  0.1667523475658310  0.4999999579881660  0.3837296458284548   T   T   T
  0.8482000477492093  0.4999999579881660  0.2238049986518931   F   F   F
  0.8591570033959092  0.4999999579881660  0.4792372807639929   T   T   T
  0.6581999438058688  0.0000000000000000  0.1313550112941684   F   F   F
  0.6669016238049674  0.0000000000000000  0.3849920961875121   T   T   T
  0.3481999599930319  0.0000000000000000  0.2238049986518931   F   F   F
  0.3583377050865086  0.0000000000000000  0.4784153043723549   T   T   T
  0.0177000091358082  0.4999999579881660  0.2055549930513223   F   F   F
  0.0280405750885257  0.4999999579881660  0.4579468362503309   T   T   T
  0.9886999244848909  0.4999999579881660  0.1496049879422756   F   F   F
  0.9956335527552702  0.4999999579881660  0.4018667878358216   T   T   T
  0.5176998964115640  0.0000000000000000  0.2055549930513223   F   F   F
  0.5298396062215202  0.0000000000000000  0.4595018905303667   T   T   T
  0.4887000246988151  0.0000000000000000  0.1496049879422756   F   F   F
  0.4951359730383287  0.0000000000000000  0.4028641173053331   T   T   T
  0.1192866415597077  0.4999999579881660  0.5279382152693419   T   T   T
 
  0.00000000E+00  0.00000000E+00  0.00000000E+00
  0.00000000E+00  0.00000000E+00  0.00000000E+00
  0.00000000E+00  0.00000000E+00  0.00000000E+00
  0.00000000E+00  0.00000000E+00  0.00000000E+00
  0.00000000E+00  0.00000000E+00  0.00000000E+00
  0.00000000E+00  0.00000000E+00  0.00000000E+00
  0.00000000E+00  0.00000000E+00  0.00000000E+00
  0.00000000E+00  0.00000000E+00  0.00000000E+00
  0.00000000E+00  0.00000000E+00  0.00000000E+00
  0.00000000E+00  0.00000000E+00  0.00000000E+00
  0.00000000E+00  0.00000000E+00  0.00000000E+00
  0.00000000E+00  0.00000000E+00  0.00000000E+00
  0.00000000E+00  0.00000000E+00  0.00000000E+00
  0.00000000E+00  0.00000000E+00  0.00000000E+00
  0.00000000E+00  0.00000000E+00  0.00000000E+00
  0.00000000E+00  0.00000000E+00  0.00000000E+00
  0.00000000E+00  0.00000000E+00  0.00000000E+00
  0.00000000E+00  0.00000000E+00  0.00000000E+00
  0.00000000E+00  0.00000000E+00  0.00000000E+00
  0.00000000E+00  0.00000000E+00  0.00000000E+00
  0.00000000E+00  0.00000000E+00  0.00000000E+00
  0.00000000E+00  0.00000000E+00  0.00000000E+00
  0.00000000E+00  0.00000000E+00  0.00000000E+00
  0.00000000E+00  0.00000000E+00  0.00000000E+00
  0.00000000E+00  0.00000000E+00  0.00000000E+00
  0.00000000E+00  0.00000000E+00  0.00000000E+00
  0.00000000E+00  0.00000000E+00  0.00000000E+00
  0.00000000E+00  0.00000000E+00  0.00000000E+00
  0.00000000E+00  0.00000000E+00  0.00000000E+00
  0.00000000E+00  0.00000000E+00  0.00000000E+00
  0.00000000E+00  0.00000000E+00  0.00000000E+00
  0.00000000E+00  0.00000000E+00  0.00000000E+00
  0.00000000E+00  0.00000000E+00  0.00000000E+00
  0.00000000E+00  0.00000000E+00  0.00000000E+00
  0.00000000E+00  0.00000000E+00  0.00000000E+00
  0.00000000E+00  0.00000000E+00  0.00000000E+00
  0.00000000E+00  0.00000000E+00  0.00000000E+00
  0.00000000E+00  0.00000000E+00  0.00000000E+00
  0.00000000E+00  0.00000000E+00  0.00000000E+00
  0.00000000E+00  0.00000000E+00  0.00000000E+00
  0.00000000E+00  0.00000000E+00  0.00000000E+00
  0.00000000E+00  0.00000000E+00  0.00000000E+00
  0.00000000E+00  0.00000000E+00  0.00000000E+00
  0.00000000E+00  0.00000000E+00  0.00000000E+00
  0.00000000E+00  0.00000000E+00  0.00000000E+00
  0.00000000E+00  0.00000000E+00  0.00000000E+00
  0.00000000E+00  0.00000000E+00  0.00000000E+00
  0.00000000E+00  0.00000000E+00  0.00000000E+00
  0.00000000E+00  0.00000000E+00  0.00000000E+00
  0.00000000E+00  0.00000000E+00  0.00000000E+00
  0.00000000E+00  0.00000000E+00  0.00000000E+00
