Nickel zinc boride (2/1/1)              
1.0
        9.5242481232         0.0000000000         0.0000000000
        0.0000000000         2.8023560047         0.0000000000
       -1.0730181131         0.0000000000        23.9508313985
   Ni   Zn    B    H
   16   10    8    1
Selective dynamics
Cartesian
     5.441464424         0.000000000         3.986616373   F   F   F
     5.220101357         0.000000000        10.061015129   F   F   F
     6.324499130         0.000000000         1.602550626   F   F   F
     6.033739567         0.000000000         7.623168468   F   F   F
     0.679339528         1.401178002         3.986616373   F   F   F
     0.457976878         1.401178002        10.061015129   F   F   F
     1.562374830         1.401178002         1.602550626   F   F   F
     1.271615744         1.401178002         7.623168468   F   F   F
     8.023054123         0.000000000         3.773094416   F   F   F
     7.765903473         0.000000000         9.803385735   F   F   F
     3.742909908         0.000000000         1.816072226   F   F   F
     3.474233627         0.000000000         7.822912693   F   F   F
     3.260929823         1.401178002         3.773094416   F   F   F
     3.003778934         1.401178002         9.803385735   F   F   F
     8.505033493         1.401178002         1.816072226   F   F   F
     8.236356735         1.401178002         7.822912693   F   F   F
     2.241715193         0.000000000         5.589165688   F   F   F
     1.954899311         0.000000000        11.717577934   F   F   F
     0.000000000         0.000000000         0.000000000   F   F   F
     8.909461021         0.000000000        12.033167839   F   F   F
    -0.268254519         0.000000000         5.987707615   F   F   F
     7.003839016         1.401178002         5.589165688   F   F   F
     6.717023373         1.401178002        11.717577934   F   F   F
     4.762124062         1.401178002         0.000000000   F   F   F
     4.147336960         1.401178002        12.033167839   F   F   F
     4.493869781         1.401178002         5.987707615   F   F   F
     1.993749738         0.000000000         3.102950335   F   F   F
     1.744310141         0.000000000         9.104107857   F   F   F
     0.247965574         0.000000000         2.486215591   F   F   F
    -0.026300848         0.000000000         8.539173126   F   F   F
     6.755874634         1.401178002         3.102950335   F   F   F
     6.506434441         1.401178002         9.104107857   F   F   F
     5.010088921         1.401178002         2.486215591   F   F   F
     4.735821724         1.401178002         8.539173126   F   F   F
	 4.147336960         1.401178002        13.333167839   F   F   T
	 
