Nickel zinc boride (3/1/2)              
   1.00000000000000     
     9.5121507644999994    0.0000000000000000    0.0000000000000000
     0.0000000000000000    2.8420565128000002    0.0000000000000000
    -6.6775160995000000    0.0000000000000000   32.9505610662000024
   Ni   Zn   B    H 
    26     8    16     2
Selective dynamics
Direct
  0.2219900548478719  0.4999999579881660  0.2403975204272157   F   F   F
  0.2265593824974090  0.4999999579881660  0.4950946474004675   T   T   T
  0.7844100220414916  0.4999999579881660  0.1147625039647338   F   F   F
  0.7888565011396796  0.4999999579881660  0.3672506345857885   T   T   T
  0.7219900298009634  0.0000000000000000  0.2403975204272157   F   F   F
  0.7279914233492781  0.0000000000000000  0.4973527684516956   T   T   T
  0.2844100345780873  0.0000000000000000  0.1147625039647338   F   F   F
  0.2893450152431284  0.0000000000000000  0.3670966959469927   T   T   T
  0.4999999498273269  0.4999999579881660  0.0000000000000000   F   F   F
  0.5048373472521709  0.4999999579881660  0.5024590127242630   T   T   T
  0.4990285890191394  0.4999999579881660  0.2506221915812293   T   T   T
  0.5063999610079790  0.4999999579881660  0.1051600064726799   F   F   F
  0.5129148306771264  0.4999999579881660  0.3586458835017065   T   T   T
  0.0000000000000000  0.0000000000000000  0.0000000000000000   F   F   F
  0.0093939142376706  0.0000000000000000  0.5024864614986564   T   T   T
  0.9991334279374470  0.0000000000000000  0.2505713257978424   T   T   T
  0.0063999735445748  0.0000000000000000  0.1051600064726799   F   F   F
  0.0120263038499075  0.0000000000000000  0.3575656585378026   T   T   T
  0.6421399887681858  0.4999999579881660  0.1783425262226572   F   F   F
  0.6462903106379762  0.4999999579881660  0.4329398350832742   T   T   T
  0.3642600128490372  0.4999999579881660  0.1768174981692923   F   F   F
  0.3678066357065241  0.4999999579881660  0.4303653280930269   T   T   T
  0.1421398634810629  0.0000000000000000  0.1783425262226572   F   F   F
  0.1454890442845784  0.0000000000000000  0.4314601065579490   T   T   T
  0.8642599627814960  0.0000000000000000  0.1768174981692923   F   F   F
  0.8671227519501248  0.0000000000000000  0.4306075235852319   T   T   T
  0.1416500543789141  0.4999999579881660  0.0589150170796771   F   F   F
  0.1441055818484848  0.4999999579881660  0.3102279101033336   T   T   T
  0.8647499291719924  0.4999999579881660  0.0462449857511871   F   F   F
  0.8669098843847679  0.4999999579881660  0.2976872842868150   T   T   T
  0.6416500293319984  0.0000000000000000  0.0589150170796771   F   F   F
  0.6436386439061024  0.0000000000000000  0.3105482442616260   T   T   T
  0.3647500043652911  0.0000000000000000  0.0462449857511871   F   F   F
  0.3675102426119538  0.0000000000000000  0.2978989332443674   T   T   T
  0.1581999814682220  0.4999999579881660  0.1313550112941684   F   F   F
  0.1628875508147254  0.4999999579881660  0.3843015140436969   T   T   T
  0.8482000477492093  0.4999999579881660  0.2238049986518931   F   F   F
  0.8543576856004056  0.4999999579881660  0.4784177259873800   T   T   T
  0.6581999438058688  0.0000000000000000  0.1313550112941684   F   F   F
  0.6631913930034056  0.0000000000000000  0.3850819789419982   T   T   T
  0.3481999599930319  0.0000000000000000  0.2238049986518931   F   F   F
  0.3533252634804799  0.0000000000000000  0.4794907478690127   T   T   T
  0.0177000091358082  0.4999999579881660  0.2055549930513223   F   F   F
  0.0230361338277664  0.4999999579881660  0.4581439005199087   T   T   T
  0.9886999244848909  0.4999999579881660  0.1496049879422756   F   F   F
  0.9914043916908251  0.4999999579881660  0.4020933979039920   T   T   T
  0.5176998964115640  0.0000000000000000  0.2055549930513223   F   F   F
  0.5233644542007209  0.0000000000000000  0.4600187268042617   T   T   T
  0.4887000246988151  0.0000000000000000  0.1496049879422756   F   F   F
  0.4920783675740668  0.0000000000000000  0.4033605398372799   T   T   T
  0.1142303427591251  0.4999999579881660  0.5280921285373860   T   T   T
  0.6803097475956560  0.4999999579881660  0.5245153444292452   T   T   T
 
  0.00000000E+00  0.00000000E+00  0.00000000E+00
  0.00000000E+00  0.00000000E+00  0.00000000E+00
  0.00000000E+00  0.00000000E+00  0.00000000E+00
  0.00000000E+00  0.00000000E+00  0.00000000E+00
  0.00000000E+00  0.00000000E+00  0.00000000E+00
  0.00000000E+00  0.00000000E+00  0.00000000E+00
  0.00000000E+00  0.00000000E+00  0.00000000E+00
  0.00000000E+00  0.00000000E+00  0.00000000E+00
  0.00000000E+00  0.00000000E+00  0.00000000E+00
  0.00000000E+00  0.00000000E+00  0.00000000E+00
  0.00000000E+00  0.00000000E+00  0.00000000E+00
  0.00000000E+00  0.00000000E+00  0.00000000E+00
  0.00000000E+00  0.00000000E+00  0.00000000E+00
  0.00000000E+00  0.00000000E+00  0.00000000E+00
  0.00000000E+00  0.00000000E+00  0.00000000E+00
  0.00000000E+00  0.00000000E+00  0.00000000E+00
  0.00000000E+00  0.00000000E+00  0.00000000E+00
  0.00000000E+00  0.00000000E+00  0.00000000E+00
  0.00000000E+00  0.00000000E+00  0.00000000E+00
  0.00000000E+00  0.00000000E+00  0.00000000E+00
  0.00000000E+00  0.00000000E+00  0.00000000E+00
  0.00000000E+00  0.00000000E+00  0.00000000E+00
  0.00000000E+00  0.00000000E+00  0.00000000E+00
  0.00000000E+00  0.00000000E+00  0.00000000E+00
  0.00000000E+00  0.00000000E+00  0.00000000E+00
  0.00000000E+00  0.00000000E+00  0.00000000E+00
  0.00000000E+00  0.00000000E+00  0.00000000E+00
  0.00000000E+00  0.00000000E+00  0.00000000E+00
  0.00000000E+00  0.00000000E+00  0.00000000E+00
  0.00000000E+00  0.00000000E+00  0.00000000E+00
  0.00000000E+00  0.00000000E+00  0.00000000E+00
  0.00000000E+00  0.00000000E+00  0.00000000E+00
  0.00000000E+00  0.00000000E+00  0.00000000E+00
  0.00000000E+00  0.00000000E+00  0.00000000E+00
  0.00000000E+00  0.00000000E+00  0.00000000E+00
  0.00000000E+00  0.00000000E+00  0.00000000E+00
  0.00000000E+00  0.00000000E+00  0.00000000E+00
  0.00000000E+00  0.00000000E+00  0.00000000E+00
  0.00000000E+00  0.00000000E+00  0.00000000E+00
  0.00000000E+00  0.00000000E+00  0.00000000E+00
  0.00000000E+00  0.00000000E+00  0.00000000E+00
  0.00000000E+00  0.00000000E+00  0.00000000E+00
  0.00000000E+00  0.00000000E+00  0.00000000E+00
  0.00000000E+00  0.00000000E+00  0.00000000E+00
  0.00000000E+00  0.00000000E+00  0.00000000E+00
  0.00000000E+00  0.00000000E+00  0.00000000E+00
  0.00000000E+00  0.00000000E+00  0.00000000E+00
  0.00000000E+00  0.00000000E+00  0.00000000E+00
  0.00000000E+00  0.00000000E+00  0.00000000E+00
  0.00000000E+00  0.00000000E+00  0.00000000E+00
  0.00000000E+00  0.00000000E+00  0.00000000E+00
  0.00000000E+00  0.00000000E+00  0.00000000E+00
