Nickel zinc boride (2/1/1)              
   1.00000000000000     
     9.6146906271118073    0.0000000000000000    0.1156841237956315
     0.0000000000000000    2.6911370275926632    0.0000000000000000
    -0.9791393138981087    0.0000000000000000   24.2455148231233544
   Ni   Zn   B 
    16     8     8
Selective dynamics
Direct
  0.4592499514097810  0.0000000000000000  0.0497700181950904   F   F   F
  0.4666511485850907 -0.0000000000000000  0.3012793527294059   T   T   T
  0.5407500303914432  0.0000000000000000  0.2002299926635231   F   F   F
  0.5393479090694218 -0.0000000000000000  0.4564716034388526   T   T   T
  0.9592498389496598  0.4999999948891443  0.0497700181950904   F   F   F
  0.9666510361249696  0.4999999948891443  0.3012793527294059   T   T   T
  0.0407500379153660  0.4999999948891443  0.2002299926635231   F   F   F
  0.0393479165933446  0.4999999948891443  0.4564716034388526   T   T   T
  0.7293001502599878  0.0000000000000000  0.0408550196482480   F   F   F
  0.7342635930845137 -0.0000000000000000  0.2942816140881327   T   T   T
  0.2706999419916087  0.0000000000000000  0.2091450329421747   F   F   F
  0.2676435032176038 -0.0000000000000000  0.4646891094652111   T   T   T
  0.2293000528477194  0.4999999948891443  0.0408550196482480   F   F   F
  0.2342634956722454  0.4999999948891443  0.2942816140881327   T   T   T
  0.7706999344676788  0.4999999948891443  0.2091450329421747   F   F   F
  0.7676434956936740  0.4999999948891443  0.4646891094652111   T   T   T
  0.1308299488791533  0.0000000000000000  0.1166799980903761   F   F   F
  0.1312368510027001 -0.0000000000000000  0.3723995919517245   T   T   T
  0.8691700329220708  0.0000000000000000  0.1333200127682375   F   F   F
  0.8700160288314848 -0.0000000000000000  0.3837029426532433   T   T   T
  0.6308299413552234  0.4999999948891443  0.1166799980903761   F   F   F
  0.6312367385425791  0.4999999948891443  0.3723995919517245   T   T   T
  0.3691700404460008  0.4999999948891443  0.1333200127682375   F   F   F
  0.3700159314192161  0.4999999948891443  0.3837029426532433   T   T   T
  0.0931000192280962  0.0000000000000000  0.0128750129744333   F   F   F
  0.0966917094906269 -0.0000000000000000  0.2624367718162197   T   T   T
  0.9068999625731280  0.0000000000000000  0.2371249978841874   F   F   F
  0.9076719750981753 -0.0000000000000000  0.4776877118396121   T   T   T
  0.5931000117041663  0.4999999948891443  0.0128750129744333   F   F   F
  0.5966917019667041  0.4999999948891443  0.2624367718162197   T   T   T
  0.4068999700970579  0.4999999948891443  0.2371249978841874   F   F   F
  0.4076719826220981  0.4999999948891443  0.4776877118396121   T   T   T
 
  0.00000000E+00  0.00000000E+00  0.00000000E+00
  0.00000000E+00  0.00000000E+00  0.00000000E+00
  0.00000000E+00  0.00000000E+00  0.00000000E+00
  0.00000000E+00  0.00000000E+00  0.00000000E+00
  0.00000000E+00  0.00000000E+00  0.00000000E+00
  0.00000000E+00  0.00000000E+00  0.00000000E+00
  0.00000000E+00  0.00000000E+00  0.00000000E+00
  0.00000000E+00  0.00000000E+00  0.00000000E+00
  0.00000000E+00  0.00000000E+00  0.00000000E+00
  0.00000000E+00  0.00000000E+00  0.00000000E+00
  0.00000000E+00  0.00000000E+00  0.00000000E+00
  0.00000000E+00  0.00000000E+00  0.00000000E+00
  0.00000000E+00  0.00000000E+00  0.00000000E+00
  0.00000000E+00  0.00000000E+00  0.00000000E+00
  0.00000000E+00  0.00000000E+00  0.00000000E+00
  0.00000000E+00  0.00000000E+00  0.00000000E+00
  0.00000000E+00  0.00000000E+00  0.00000000E+00
  0.00000000E+00  0.00000000E+00  0.00000000E+00
  0.00000000E+00  0.00000000E+00  0.00000000E+00
  0.00000000E+00  0.00000000E+00  0.00000000E+00
  0.00000000E+00  0.00000000E+00  0.00000000E+00
  0.00000000E+00  0.00000000E+00  0.00000000E+00
  0.00000000E+00  0.00000000E+00  0.00000000E+00
  0.00000000E+00  0.00000000E+00  0.00000000E+00
  0.00000000E+00  0.00000000E+00  0.00000000E+00
  0.00000000E+00  0.00000000E+00  0.00000000E+00
  0.00000000E+00  0.00000000E+00  0.00000000E+00
  0.00000000E+00  0.00000000E+00  0.00000000E+00
  0.00000000E+00  0.00000000E+00  0.00000000E+00
  0.00000000E+00  0.00000000E+00  0.00000000E+00
  0.00000000E+00  0.00000000E+00  0.00000000E+00
  0.00000000E+00  0.00000000E+00  0.00000000E+00
