Nickel zinc boride (2/1/1)              
   1.00000000000000     
     9.5242481231999996    0.0000000000000000    0.0000000000000000
     0.0000000000000000    2.8023560047000000    0.0000000000000000
    -1.0730181131000001    0.0000000000000000   23.9508313985000001
   Ni   Zn   B    H 
    16    10     8     1
Selective dynamics
Direct
  0.5900799977103830  0.0000000000000000  0.1664500203216193   F   F   F
  0.5991428108291998  0.0000000000000000  0.4161790589709682   F   F   F
  0.6715800251610986  0.0000000000000000  0.0669100207561186   F   F   F
  0.6738854110724475  0.0000000000000000  0.3170414651023563   F   F   F
  0.0900799101024177  0.4999999998751079  0.1664500203216193   F   F   F
  0.1030625358635220  0.4999999998751079  0.4207713889059903   F   F   F
  0.1715800001302554  0.4999999998751079  0.0669100207561186   F   F   F
  0.1721951313891168  0.4999999998751079  0.3185402546183767   F   F   F
  0.8601300515649442  0.0000000000000000  0.1575349980225056   F   F   F
  0.8655517700085369  0.0000000000000000  0.4126564795416243   F   F   F
  0.4015300436795712  0.0000000000000000  0.0758250181709244   F   F   F
  0.4040236655117582  0.0000000000000000  0.3272099880629113   F   F   F
  0.3601300515229440  0.4999999998751079  0.1575349980225056   F   F   F
  0.3687038959167310  0.4999999998751079  0.4113977129669522   F   F   F
  0.9015299685450273  0.4999999998751079  0.0758250181709244   F   F   F
  0.9056526767415747  0.4999999998751079  0.3285738343301432   F   F   F
  0.2616599666430091  0.0000000000000000  0.2333599863406022   F   F   F
  0.2710892017736128  0.0000000000000000  0.4905760143147191   F   F   F
  0.0000000000000000  0.0000000000000000  0.0000000000000000   F   F   F
  0.0031752307523192  0.0000000000000000  0.5034743402166484   F   F   F
  0.0000000007762893  0.0000000000000000  0.2499999702880871   F   F   F
  0.7616599666850021  0.4999999998751079  0.2333599863406022   F   F   F
  0.7672966795907428  0.4999999998751079  0.4910043764383261   F   F   F
  0.5000000000420002  0.4999999998751079  0.0000000000000000   F   F   F
  0.5019681180716091  0.4999999998751079  0.5034230148167254   F   F   F
  0.5000000226572823  0.4999999998751079  0.2499999702880871   F   F   F
  0.2239299720852230  0.0000000000000000  0.1295550155805572   F   F   F
  0.2322230100861802  0.0000000000000000  0.3805878549406359   F   F   F
  0.0377300332655750  0.0000000000000000  0.1038049806970704   F   F   F
  0.0419037159086386  0.0000000000000000  0.3581877984217812   F   F   F
  0.7239300596931884  0.4999999998751079  0.1295550155805572   F   F   F
  0.7304648805517573  0.4999999998751079  0.3799641456943306   F   F   F
  0.5377300082137282  0.4999999998751079  0.1038049806970704   F   F   F
  0.5421768518330055  0.4999999998751079  0.3549794228659806   F   F   F
  0.6525200062114678  0.4999999998751079  0.5454158390851589   F   F   T
 
  0.00000000E+00  0.00000000E+00  0.00000000E+00
  0.00000000E+00  0.00000000E+00  0.00000000E+00
  0.00000000E+00  0.00000000E+00  0.00000000E+00
  0.00000000E+00  0.00000000E+00  0.00000000E+00
  0.00000000E+00  0.00000000E+00  0.00000000E+00
  0.00000000E+00  0.00000000E+00  0.00000000E+00
  0.00000000E+00  0.00000000E+00  0.00000000E+00
  0.00000000E+00  0.00000000E+00  0.00000000E+00
  0.00000000E+00  0.00000000E+00  0.00000000E+00
  0.00000000E+00  0.00000000E+00  0.00000000E+00
  0.00000000E+00  0.00000000E+00  0.00000000E+00
  0.00000000E+00  0.00000000E+00  0.00000000E+00
  0.00000000E+00  0.00000000E+00  0.00000000E+00
  0.00000000E+00  0.00000000E+00  0.00000000E+00
  0.00000000E+00  0.00000000E+00  0.00000000E+00
  0.00000000E+00  0.00000000E+00  0.00000000E+00
  0.00000000E+00  0.00000000E+00  0.00000000E+00
  0.00000000E+00  0.00000000E+00  0.00000000E+00
  0.00000000E+00  0.00000000E+00  0.00000000E+00
  0.00000000E+00  0.00000000E+00  0.00000000E+00
  0.00000000E+00  0.00000000E+00  0.00000000E+00
  0.00000000E+00  0.00000000E+00  0.00000000E+00
  0.00000000E+00  0.00000000E+00  0.00000000E+00
  0.00000000E+00  0.00000000E+00  0.00000000E+00
  0.00000000E+00  0.00000000E+00  0.00000000E+00
  0.00000000E+00  0.00000000E+00  0.00000000E+00
  0.00000000E+00  0.00000000E+00  0.00000000E+00
  0.00000000E+00  0.00000000E+00  0.00000000E+00
  0.00000000E+00  0.00000000E+00  0.00000000E+00
  0.00000000E+00  0.00000000E+00  0.00000000E+00
  0.00000000E+00  0.00000000E+00  0.00000000E+00
  0.00000000E+00  0.00000000E+00  0.00000000E+00
  0.00000000E+00  0.00000000E+00  0.00000000E+00
  0.00000000E+00  0.00000000E+00  0.00000000E+00
  0.00000000E+00  0.00000000E+00  0.00000000E+00
