Nickel zinc boride (3/1/2)              
   1.00000000000000     
     9.5155229567999999    0.0000000000000000    0.0000000000000000
     0.0000000000000000    2.8443119526000000    0.0000000000000000
    -6.7200700749999998    0.0000000000000000   33.1553294495000017
   Ni   Zn   B    H 
    24    10    16     3
Selective dynamics
Direct
  0.0803399943409744  0.0000000000000000  0.1814825053741345   F   F   F
  0.0766731809974641  0.0000000000000000  0.4304964006768613   T   T   T
  0.6427599819754022  0.0000000000000000  0.0558475176613840   F   F   F
  0.6396867551375738  0.0000000000000000  0.3056284421649401   T   T   T
  0.5803400883557757  0.4999999580566410  0.1814825053741345   F   F   F
  0.5802786167835574  0.4999999580566410  0.4347787244615478   T   T   T
  0.1427599945233240  0.4999999580566410  0.0558475176613840   F   F   F
  0.1420240276979330  0.4999999580566410  0.3062116641375711   T   T   T
  0.3583500461670184  0.0000000000000000  0.1910850085700346   F   F   F
  0.3515560358890407  0.0000000000000000  0.4406843976291211   T   T   T
  0.3647500266358534  0.0000000000000000  0.0462450180546483   F   F   F
  0.3652552346998862  0.0000000000000000  0.2971416924838923   T   T   T
  0.8583500462300719  0.4999999580566410  0.1910850085700346   F   F   F
  0.8574904895086652  0.4999999580566410  0.4388245356362626   T   T   T
  0.8647500768275265  0.4999999580566410  0.0462450180546483   F   F   F
  0.8620929975314142  0.4999999580566410  0.2957136895273684   T   T   T
  0.5004899841531127  0.0000000000000000  0.1194275083295793   F   F   F
  0.4992283630974222  0.0000000000000000  0.3714108462383513   T   T   T
  0.2226100611032535  0.0000000000000000  0.1179025147059392   F   F   F
  0.2216666166138506  0.0000000000000000  0.3680938408369397   T   T   T
  0.0004899277610448  0.4999999580566410  0.1194275083295793   F   F   F
 -0.0024822252830028  0.4999999580566410  0.3685450096085604   T   T   T
  0.7226100861780722  0.4999999580566410  0.1179025147059392   F   F   F
  0.7190098664409290  0.4999999580566410  0.3677060982101736   T   T   T
  0.0000000000000000  0.0000000000000000  0.0000000000000000   F   F   F
  0.0090127478746468  0.0000000000000000  0.4986516650465677   T   T   T
  0.0002118065406976  0.0000000000000000  0.2498341216813548   T   T   T
  0.7231000653037185  0.0000000000000000  0.2373300158571823   F   F   F
  0.7342496311472543  0.0000000000000000  0.4891895747570921   T   T   T
  0.4999999499344412  0.4999999580566410  0.0000000000000000   F   F   F
  0.5135682270403600  0.4999999580566410  0.5017764313406415   T   T   T
  0.4992686124121282  0.4999999580566410  0.2497466877787260   T   T   T
  0.2230999775944085  0.4999999580566410  0.2373300158571823   F   F   F
  0.2365921494792584  0.4999999580566410  0.4879275054092272   T   T   T
  0.0165499456969869  0.0000000000000000  0.0724399915150329   F   F   F
  0.0133000205603978  0.0000000000000000  0.3221855823305756   T   T   T
  0.7065500142587098  0.0000000000000000  0.1648900171336507   F   F   F
  0.7063503838502222  0.0000000000000000  0.4156637643124890   T   T   T
  0.5165500459121830  0.4999999580566410  0.0724399915150329   F   F   F
  0.5154048025125115  0.4999999580566410  0.3235712780327137   T   T   T
  0.2065500393125106  0.4999999580566410  0.1648900171336507   F   F   F
  0.2021632916059129  0.4999999580566410  0.4141519858059423   T   T   T
  0.8760500959027553  0.0000000000000000  0.1466400131057455   F   F   F
  0.8737859748290513  0.0000000000000000  0.3954793707598991   T   T   T
  0.8470499694006790  0.0000000000000000  0.0906900027212743   F   F   F
  0.8417933060588800  0.0000000000000000  0.3399400779440569   T   T   T
  0.3760499956875591  0.4999999580566410  0.1466400131057455   F   F   F
  0.3761470084276084  0.4999999580566410  0.3976138349483920   T   T   T
  0.3470500194662449  0.4999999580566410  0.0906900027212743   F   F   F
  0.3441862013524733  0.4999999580566410  0.3413485499082743   T   T   T
  0.4324219785277869  0.4999999580566410  0.5405978119413788   T   T   T
  0.1267255332923320  0.4999999580566410  0.5240635942013446   T   T   T
  0.8796012968446117  0.0000000000000000  0.5276604183113277   T   T   T
 
  0.00000000E+00  0.00000000E+00  0.00000000E+00
  0.00000000E+00  0.00000000E+00  0.00000000E+00
  0.00000000E+00  0.00000000E+00  0.00000000E+00
  0.00000000E+00  0.00000000E+00  0.00000000E+00
  0.00000000E+00  0.00000000E+00  0.00000000E+00
  0.00000000E+00  0.00000000E+00  0.00000000E+00
  0.00000000E+00  0.00000000E+00  0.00000000E+00
  0.00000000E+00  0.00000000E+00  0.00000000E+00
  0.00000000E+00  0.00000000E+00  0.00000000E+00
  0.00000000E+00  0.00000000E+00  0.00000000E+00
  0.00000000E+00  0.00000000E+00  0.00000000E+00
  0.00000000E+00  0.00000000E+00  0.00000000E+00
  0.00000000E+00  0.00000000E+00  0.00000000E+00
  0.00000000E+00  0.00000000E+00  0.00000000E+00
  0.00000000E+00  0.00000000E+00  0.00000000E+00
  0.00000000E+00  0.00000000E+00  0.00000000E+00
  0.00000000E+00  0.00000000E+00  0.00000000E+00
  0.00000000E+00  0.00000000E+00  0.00000000E+00
  0.00000000E+00  0.00000000E+00  0.00000000E+00
  0.00000000E+00  0.00000000E+00  0.00000000E+00
  0.00000000E+00  0.00000000E+00  0.00000000E+00
  0.00000000E+00  0.00000000E+00  0.00000000E+00
  0.00000000E+00  0.00000000E+00  0.00000000E+00
  0.00000000E+00  0.00000000E+00  0.00000000E+00
  0.00000000E+00  0.00000000E+00  0.00000000E+00
  0.00000000E+00  0.00000000E+00  0.00000000E+00
  0.00000000E+00  0.00000000E+00  0.00000000E+00
  0.00000000E+00  0.00000000E+00  0.00000000E+00
  0.00000000E+00  0.00000000E+00  0.00000000E+00
  0.00000000E+00  0.00000000E+00  0.00000000E+00
  0.00000000E+00  0.00000000E+00  0.00000000E+00
  0.00000000E+00  0.00000000E+00  0.00000000E+00
  0.00000000E+00  0.00000000E+00  0.00000000E+00
  0.00000000E+00  0.00000000E+00  0.00000000E+00
  0.00000000E+00  0.00000000E+00  0.00000000E+00
  0.00000000E+00  0.00000000E+00  0.00000000E+00
  0.00000000E+00  0.00000000E+00  0.00000000E+00
  0.00000000E+00  0.00000000E+00  0.00000000E+00
  0.00000000E+00  0.00000000E+00  0.00000000E+00
  0.00000000E+00  0.00000000E+00  0.00000000E+00
  0.00000000E+00  0.00000000E+00  0.00000000E+00
  0.00000000E+00  0.00000000E+00  0.00000000E+00
  0.00000000E+00  0.00000000E+00  0.00000000E+00
  0.00000000E+00  0.00000000E+00  0.00000000E+00
  0.00000000E+00  0.00000000E+00  0.00000000E+00
  0.00000000E+00  0.00000000E+00  0.00000000E+00
  0.00000000E+00  0.00000000E+00  0.00000000E+00
  0.00000000E+00  0.00000000E+00  0.00000000E+00
  0.00000000E+00  0.00000000E+00  0.00000000E+00
  0.00000000E+00  0.00000000E+00  0.00000000E+00
  0.00000000E+00  0.00000000E+00  0.00000000E+00
  0.00000000E+00  0.00000000E+00  0.00000000E+00
  0.00000000E+00  0.00000000E+00  0.00000000E+00
