Nickel zinc boride (2/1/1)              
   1.00000000000000     
     9.5242481231999996    0.0000000000000000    0.0000000000000000
     0.0000000000000000    2.8023560047000000    0.0000000000000000
    -1.0730181131000001    0.0000000000000000   23.9508313985000001
   Ni   Zn   B    H 
    16    10     8     3
Selective dynamics
Direct
  0.5900799977103830  0.0000000000000000  0.1664500203216193   F   F   F
  0.5991368958328561  0.0000000000000000  0.4151840954900914   T   T   T
  0.6715800251610986  0.0000000000000000  0.0669100207561186   F   F   F
  0.6706641581979048  0.0000000000000000  0.3158153991019661   T   T   T
  0.0900799101024177  0.4999999998751079  0.1664500203216193   F   F   F
  0.0889597727473256  0.4999999998751079  0.4131028825494391   T   T   T
  0.1715800001302554  0.4999999998751079  0.0669100207561186   F   F   F
  0.1712935909075676  0.4999999998751079  0.3157727685652261   T   T   T
  0.8601300526891649  0.0000000000000000  0.1575350080012825   F   F   F
  0.8621111005545318  0.0000000000000000  0.4059033016150553   T   T   T
  0.4015300185857242  0.0000000000000000  0.0758250181709244   F   F   F
  0.4005203293776725  0.0000000000000000  0.3280840994115959   T   T   T
  0.3601300276583217  0.4999999998751079  0.1575350080012825   F   F   F
  0.3620150061340718  0.4999999998751079  0.4123387586131379   T   T   T
  0.9015299685450273  0.4999999998751079  0.0758250181709244   F   F   F
  0.9006501517737137  0.4999999998751079  0.3229635826357345   T   T   T
  0.2616599917368490  0.0000000000000000  0.2333599863406022   F   F   F
  0.2586296119774381  0.0000000000000000  0.4861430568327061   T   T   T
  0.0000000000000000  0.0000000000000000  0.0000000000000000   F   F   F
 -0.0057236324401566  0.0000000000000000  0.4999203981850572   T   T   T
  0.9999999998701838  0.0000000000000000  0.2499999902038894   F   F   F
  0.7616599666850021  0.4999999998751079  0.2333599863406022   F   F   F
  0.7508541734438203  0.4999999998751079  0.4854947989937079   T   T   T
  0.5000000000420002  0.4999999998751079  0.0000000000000000   F   F   F
  0.4920381058587380  0.4999999998751079  0.5027369889115346   T   T   T
  0.5000000249010341  0.4999999998751079  0.2499999902038894   F   F   F
  0.2239299720852230  0.0000000000000000  0.1295550155805572   F   F   F
  0.2245777858557231  0.0000000000000000  0.3798544228961878   T   T   T
  0.0377300332655750  0.0000000000000000  0.1038049806970704   F   F   F
  0.0365875778176224  0.0000000000000000  0.3507643533540343   T   T   T
  0.7239300596931884  0.4999999998751079  0.1295550155805572   F   F   F
  0.7266594579645945  0.4999999998751079  0.3762849181644328   T   T   T
  0.5377299582360351  0.4999999998751079  0.1038049806970704   F   F   F
  0.5370904577307959  0.4999999998751079  0.3553953913674021   T   T   T
  0.9032571937506391  0.4999999998751079  0.5329829274309192   T   T   T
  0.6237001911166645  0.4999999998751079  0.5539052990164288   T   T   T
  0.1486516374191324  0.0000000000000000  0.5404775684296501   T   T   T
 
  0.00000000E+00  0.00000000E+00  0.00000000E+00
  0.00000000E+00  0.00000000E+00  0.00000000E+00
  0.00000000E+00  0.00000000E+00  0.00000000E+00
  0.00000000E+00  0.00000000E+00  0.00000000E+00
  0.00000000E+00  0.00000000E+00  0.00000000E+00
  0.00000000E+00  0.00000000E+00  0.00000000E+00
  0.00000000E+00  0.00000000E+00  0.00000000E+00
  0.00000000E+00  0.00000000E+00  0.00000000E+00
  0.00000000E+00  0.00000000E+00  0.00000000E+00
  0.00000000E+00  0.00000000E+00  0.00000000E+00
  0.00000000E+00  0.00000000E+00  0.00000000E+00
  0.00000000E+00  0.00000000E+00  0.00000000E+00
  0.00000000E+00  0.00000000E+00  0.00000000E+00
  0.00000000E+00  0.00000000E+00  0.00000000E+00
  0.00000000E+00  0.00000000E+00  0.00000000E+00
  0.00000000E+00  0.00000000E+00  0.00000000E+00
  0.00000000E+00  0.00000000E+00  0.00000000E+00
  0.00000000E+00  0.00000000E+00  0.00000000E+00
  0.00000000E+00  0.00000000E+00  0.00000000E+00
  0.00000000E+00  0.00000000E+00  0.00000000E+00
  0.00000000E+00  0.00000000E+00  0.00000000E+00
  0.00000000E+00  0.00000000E+00  0.00000000E+00
  0.00000000E+00  0.00000000E+00  0.00000000E+00
  0.00000000E+00  0.00000000E+00  0.00000000E+00
  0.00000000E+00  0.00000000E+00  0.00000000E+00
  0.00000000E+00  0.00000000E+00  0.00000000E+00
  0.00000000E+00  0.00000000E+00  0.00000000E+00
  0.00000000E+00  0.00000000E+00  0.00000000E+00
  0.00000000E+00  0.00000000E+00  0.00000000E+00
  0.00000000E+00  0.00000000E+00  0.00000000E+00
  0.00000000E+00  0.00000000E+00  0.00000000E+00
  0.00000000E+00  0.00000000E+00  0.00000000E+00
  0.00000000E+00  0.00000000E+00  0.00000000E+00
  0.00000000E+00  0.00000000E+00  0.00000000E+00
  0.00000000E+00  0.00000000E+00  0.00000000E+00
  0.00000000E+00  0.00000000E+00  0.00000000E+00
  0.00000000E+00  0.00000000E+00  0.00000000E+00
