Nickel zinc boride (3/1/2)              
1.0
        9.5155229568         0.0000000000         0.0000000000
        0.0000000000         2.8443119526         0.0000000000
       -6.7200700750         0.0000000000        33.1553294495
   Ni   Zn    B    H
   24   10   16    1
Selective dynamics
Cartesian
    -0.455098093         0.000000000         6.017112255   F   F   F
    -2.143962383         0.000000000        14.336475372   T   T   T
     5.740898132         0.000000000         1.851642847   F   F   F
     4.063224316         0.000000000        10.156746864   T   T   T
     4.302664280         1.422155857         6.017112255   F   F   F
     2.613799810         1.422155857        14.336475372   T   T   T
     0.983136773         1.422155857         1.851642847   F   F   F
    -0.694536924         1.422155857        10.156746864   T   T   T
     2.125783443         0.000000000         6.335486412   F   F   F
     0.412396193         0.000000000        14.705338478   T   T   T
     3.160017490         0.000000000         1.533268809   F   F   F
     1.489719272         0.000000000         9.851350784   T   T   T
     6.883544922         1.422155857         6.335486412   F   F   F
     5.170158386         1.422155857        14.705338478   T   T   T
     7.917779446         1.422155857         1.533268809   F   F   F
     6.247480392         1.422155857         9.851350784   T   T   T
     3.959862709         0.000000000         3.959658384   F   F   F
     2.274520636         0.000000000        12.275860786   T   T   T
     1.325937986         0.000000000         3.909096718   F   F   F
    -0.354447365         0.000000000        12.238584518   T   T   T
    -0.797899306         1.422155857         3.959658384   F   F   F
    -2.483242035         1.422155857        12.275860786   T   T   T
     6.083699703         1.422155857         3.909096718   F   F   F
     4.403314114         1.422155857        12.238584518   T   T   T
     0.000000000         0.000000000         0.000000000   F   F   F
    -3.273920536         0.000000000        16.621704102   T   T   T
     7.830995560         0.000000000         8.297867775   T   T   T
     5.285800934         0.000000000         7.868754864   F   F   F
     3.640073299         0.000000000        16.278484344   T   T   T
     4.757761002         1.422155857         0.000000000   F   F   F
     1.483840466         1.422155857        16.621704102   T   T   T
     3.073232889         1.422155857         8.297867775   T   T   T
     0.528038621         1.422155857         7.868754864   F   F   F
    -1.117689371         1.422155857        16.278484344   T   T   T
    -0.329320431         0.000000000         2.401771784   F   F   F
    -2.011201143         0.000000000        10.726118088   T   T   T
     5.615120411         0.000000000         5.466982841   F   F   F
     3.921862125         0.000000000        13.774583817   T   T   T
     4.428442001         1.422155857         2.401771784   F   F   F
     2.746561527         1.422155857        10.726118088   T   T   T
     0.857359171         1.422155857         5.466982841   F   F   F
    -0.835899115         1.422155857        13.774583817   T   T   T
     7.350643635         0.000000000         4.861897945   F   F   F
     5.669342995         0.000000000        13.193970680   T   T   T
     7.450680256         0.000000000         3.006856918   F   F   F
     5.761005402         0.000000000        11.336469650   T   T   T
     2.592881203         1.422155857         4.861897945   F   F   F
     0.911580324         1.422155857        13.193970680   T   T   T
     2.692919254         1.422155857         3.006856918   F   F   F
     1.003243446         1.422155857        11.336469650   T   T   T
	 1.483840466         1.422155857        17.921704102   T   T   T
