Nickel zinc boride (2/1/1)              
   1.00000000000000     
     9.6070024389837059    0.0000000000000000   -0.0399770276174411
     0.0000000000000000    2.7144068201162703    0.0000000000000000
    -0.7869922035734928    0.0000000000000000   24.0085170965186059
   Ni   Zn   B    H 
    16     8     8     2
Selective dynamics
Direct
  0.4592499479736958  0.0000000000000000  0.0497700204952878   F   F   F
  0.4668918322602112  0.0000000000000000  0.3023755415290812   T   T   T
  0.5407500164678467  0.0000000000000000  0.2002299898219420   F   F   F
  0.5406600949258332  0.0000000000000000  0.4664603489612957   T   T   T
  0.9592498488149204  0.5000000001114770  0.0497700204952878   F   F   F
  0.9664127721869625  0.5000000001114770  0.3013508808572671   T   T   T
  0.0407500350266474  0.5000000001114770  0.2002299898219420   F   F   F
  0.0377738066962286  0.5000000001114770  0.4581097487298358   T   T   T
  0.7293001514944564  0.0000000000000000  0.0408550205356732   F   F   F
  0.7337751749917339  0.0000000000000000  0.2945932880078502   T   T   T
  0.2706999406748523  0.0000000000000000  0.2091450438310645   F   F   F
  0.2687855031480276  0.0000000000000000  0.4732626408624714   T   T   T
  0.2293000523252786  0.5000000001114770  0.0408550205356732   F   F   F
  0.2352973245448746  0.5000000001114770  0.2944953747758168   T   T   T
  0.7706999158760581  0.5000000001114770  0.2091450438310645   F   F   F
  0.7733376043667923  0.5000000001114770  0.4689014446543228   T   T   T
  0.1308299482658555  0.0000000000000000  0.1166799939853860   F   F   F
  0.1322176254854371  0.0000000000000000  0.3726402938170364   T   T   T
  0.8691700041504191  0.0000000000000000  0.1333200212379353   F   F   F
  0.8708033460657550  0.0000000000000000  0.3846827323778370   T   T   T
  0.6308299109870603  0.5000000001114770  0.1166799939853860   F   F   F
  0.6309069453105596  0.5000000001114770  0.3739282142983623   T   T   T
  0.3691700537012039  0.5000000001114770  0.1333200212379353   F   F   F
  0.3689103963110050  0.5000000001114770  0.3864873936759340   T   T   T
  0.0931000163117375  0.0000000000000000  0.0128750131244786   F   F   F
  0.0965802324276207  0.0000000000000000  0.2633665874079639   T   T   T
  0.9068999793841002  0.0000000000000000  0.2371250008620152   F   F   F
  0.9111289114275193  0.0000000000000000  0.4806620538502807   T   T   T
  0.5931000348809334  0.5000000001114770  0.0128750131244786   F   F   F
  0.5960592481358759  0.5000000001114770  0.2632831694188543   T   T   T
  0.4068999545749108  0.5000000001114770  0.2371250008620152   F   F   F
  0.4066877532498940  0.5000000001114770  0.4821309070660014   T   T   T
  0.6230619719911220  0.5000000001114770  0.5003105289342866   T   T   T
  0.1773443501114047  0.5000000001114770  0.5006440859782799   T   T   T
 
  0.00000000E+00  0.00000000E+00  0.00000000E+00
  0.00000000E+00  0.00000000E+00  0.00000000E+00
  0.00000000E+00  0.00000000E+00  0.00000000E+00
  0.00000000E+00  0.00000000E+00  0.00000000E+00
  0.00000000E+00  0.00000000E+00  0.00000000E+00
  0.00000000E+00  0.00000000E+00  0.00000000E+00
  0.00000000E+00  0.00000000E+00  0.00000000E+00
  0.00000000E+00  0.00000000E+00  0.00000000E+00
  0.00000000E+00  0.00000000E+00  0.00000000E+00
  0.00000000E+00  0.00000000E+00  0.00000000E+00
  0.00000000E+00  0.00000000E+00  0.00000000E+00
  0.00000000E+00  0.00000000E+00  0.00000000E+00
  0.00000000E+00  0.00000000E+00  0.00000000E+00
  0.00000000E+00  0.00000000E+00  0.00000000E+00
  0.00000000E+00  0.00000000E+00  0.00000000E+00
  0.00000000E+00  0.00000000E+00  0.00000000E+00
  0.00000000E+00  0.00000000E+00  0.00000000E+00
  0.00000000E+00  0.00000000E+00  0.00000000E+00
  0.00000000E+00  0.00000000E+00  0.00000000E+00
  0.00000000E+00  0.00000000E+00  0.00000000E+00
  0.00000000E+00  0.00000000E+00  0.00000000E+00
  0.00000000E+00  0.00000000E+00  0.00000000E+00
  0.00000000E+00  0.00000000E+00  0.00000000E+00
  0.00000000E+00  0.00000000E+00  0.00000000E+00
  0.00000000E+00  0.00000000E+00  0.00000000E+00
  0.00000000E+00  0.00000000E+00  0.00000000E+00
  0.00000000E+00  0.00000000E+00  0.00000000E+00
  0.00000000E+00  0.00000000E+00  0.00000000E+00
  0.00000000E+00  0.00000000E+00  0.00000000E+00
  0.00000000E+00  0.00000000E+00  0.00000000E+00
  0.00000000E+00  0.00000000E+00  0.00000000E+00
  0.00000000E+00  0.00000000E+00  0.00000000E+00
  0.00000000E+00  0.00000000E+00  0.00000000E+00
  0.00000000E+00  0.00000000E+00  0.00000000E+00
