Nickel zinc boride (2/1/1)              
   1.00000000000000     
     9.5242481231999996    0.0000000000000000    0.0000000000000000
     0.0000000000000000    2.8023560047000000    0.0000000000000000
    -1.0730181131000001    0.0000000000000000   23.9508313985000001
   Ni   Zn   B    H 
    16    10     8     1
Selective dynamics
Direct
  0.5900799977103830  0.0000000000000000  0.1664500203216193   F   F   F
  0.5954111575826033  0.0000000000000000  0.4200695567348873   F   F   F
  0.6715800251610986  0.0000000000000000  0.0669100207561186   F   F   F
  0.6693719098198443  0.0000000000000000  0.3182840854734366   F   F   F
  0.0900799101024177  0.4999999998751079  0.1664500203216193   F   F   F
  0.0954111137576206  0.4999999998751079  0.4200695567348873   F   F   F
  0.1715800001302554  0.4999999998751079  0.0669100207561186   F   F   F
  0.1693719348716911  0.4999999998751079  0.3182840854734366   F   F   F
  0.8601300526891649  0.0000000000000000  0.1575350080012825   F   F   F
  0.8614962135277224  0.0000000000000000  0.4093129617042877   F   F   F
  0.4015300185857242  0.0000000000000000  0.0758250181709244   F   F   F
  0.4015757340266148  0.0000000000000000  0.3266238471158047   F   F   F
  0.3601300276583217  0.4999999998751079  0.1575350080012825   F   F   F
  0.3614961634030323  0.4999999998751079  0.4093129617042877   F   F   F
  0.9015299685450273  0.4999999998751079  0.0758250181709244   F   F   F
  0.9015756339032279  0.4999999998751079  0.3266238471158047   F   F   F
  0.2616599917368490  0.0000000000000000  0.2333599863406022   F   F   F
  0.2603729952176153  0.0000000000000000  0.4892347050104462   F   F   F
  0.0000000000000000  0.0000000000000000  0.0000000000000000   F   F   F
  0.9920528425451280  0.0000000000000000  0.5024112791238480   F   F   F
  0.9999999998701838  0.0000000000000000  0.2499999902038894   F   F   F
  0.7616599666850021  0.4999999998751079  0.2333599863406022   F   F   F
  0.7603729952596154  0.4999999998751079  0.4892347050104462   F   F   F
  0.5000000000420002  0.4999999998751079  0.0000000000000000   F   F   F
  0.4920528426081248  0.4999999998751079  0.5024112791238480   F   F   F
  0.5000000249010341  0.4999999998751079  0.2499999902038894   F   F   F
  0.2239299720852230  0.0000000000000000  0.1295550155805572   F   F   F
  0.2259687144682232  0.0000000000000000  0.3801165690461232   F   F   F
  0.0377300332655750  0.0000000000000000  0.1038049806970704   F   F   F
  0.0374057398480403  0.0000000000000000  0.3565292988758131   F   F   F
  0.7239300596931884  0.4999999998751079  0.1295550155805572   F   F   F
  0.7259687394990735  0.4999999998751079  0.3801165690461232   F   F   F
  0.5377299582360351  0.4999999998751079  0.1038049806970704   F   F   F
  0.5374055834472387  0.4999999998751079  0.3565292988758131   F   F   F
  0.4981678799142486  0.4999999998751079  0.5675778021570601   F   F   T
 
  0.00000000E+00  0.00000000E+00  0.00000000E+00
  0.00000000E+00  0.00000000E+00  0.00000000E+00
  0.00000000E+00  0.00000000E+00  0.00000000E+00
  0.00000000E+00  0.00000000E+00  0.00000000E+00
  0.00000000E+00  0.00000000E+00  0.00000000E+00
  0.00000000E+00  0.00000000E+00  0.00000000E+00
  0.00000000E+00  0.00000000E+00  0.00000000E+00
  0.00000000E+00  0.00000000E+00  0.00000000E+00
  0.00000000E+00  0.00000000E+00  0.00000000E+00
  0.00000000E+00  0.00000000E+00  0.00000000E+00
  0.00000000E+00  0.00000000E+00  0.00000000E+00
  0.00000000E+00  0.00000000E+00  0.00000000E+00
  0.00000000E+00  0.00000000E+00  0.00000000E+00
  0.00000000E+00  0.00000000E+00  0.00000000E+00
  0.00000000E+00  0.00000000E+00  0.00000000E+00
  0.00000000E+00  0.00000000E+00  0.00000000E+00
  0.00000000E+00  0.00000000E+00  0.00000000E+00
  0.00000000E+00  0.00000000E+00  0.00000000E+00
  0.00000000E+00  0.00000000E+00  0.00000000E+00
  0.00000000E+00  0.00000000E+00  0.00000000E+00
  0.00000000E+00  0.00000000E+00  0.00000000E+00
  0.00000000E+00  0.00000000E+00  0.00000000E+00
  0.00000000E+00  0.00000000E+00  0.00000000E+00
  0.00000000E+00  0.00000000E+00  0.00000000E+00
  0.00000000E+00  0.00000000E+00  0.00000000E+00
  0.00000000E+00  0.00000000E+00  0.00000000E+00
  0.00000000E+00  0.00000000E+00  0.00000000E+00
  0.00000000E+00  0.00000000E+00  0.00000000E+00
  0.00000000E+00  0.00000000E+00  0.00000000E+00
  0.00000000E+00  0.00000000E+00  0.00000000E+00
  0.00000000E+00  0.00000000E+00  0.00000000E+00
  0.00000000E+00  0.00000000E+00  0.00000000E+00
  0.00000000E+00  0.00000000E+00  0.00000000E+00
  0.00000000E+00  0.00000000E+00  0.00000000E+00
  0.00000000E+00  0.00000000E+00  0.00000000E+00
