Nickel zinc boride (3/1/2)              
   1.00000000000000     
     9.5121507644999994    0.0000000000000000    0.0000000000000000
     0.0000000000000000    2.8420565128000002    0.0000000000000000
    -6.6775160995000000    0.0000000000000000   32.9505610662000024
   Ni   Zn   B    H 
    26     8    16     3
Selective dynamics
Direct
  0.2219900524998550  0.4999999579881660  0.2403975349034511   F   F   F
  0.2170890848923293  0.4999999579881660  0.4945260385175985   F   F   F
  0.7844100271332906  0.4999999579881660  0.1147625112180251   F   F   F
  0.7842903536983883  0.4999999579881660  0.3671912965819288   F   F   F
  0.7219900399632593  0.0000000000000000  0.2403975349034511   F   F   F
  0.7268340652252334  0.0000000000000000  0.4981093617199761   F   F   F
  0.2844100396698863  0.0000000000000000  0.1147625112180251   F   F   F
  0.2852279258446515  0.0000000000000000  0.3671110387983134   F   F   F
  0.4999999498273269  0.4999999579881660  0.0000000000000000   F   F   F
  0.4988122503397250  0.4999999579881660  0.5024759869410431   F   F   F
  0.4986395908026111  0.4999999579881660  0.2506855953500917   F   F   F
  0.5064000111543692  0.4999999579881660  0.1051600064726799   F   F   F
  0.5090015311788108  0.4999999579881660  0.3589364669766439   F   F   F
  0.0000000000000000  0.0000000000000000  0.0000000000000000   F   F   F
  0.9977735853131762  0.0000000000000000  0.5044818236509911   F   F   F
  0.9987006263181968  0.0000000000000000  0.2505582769414190   F   F   F
  0.0063999735445748  0.0000000000000000  0.1051600064726799   F   F   F
  0.0079333228375518  0.0000000000000000  0.3574177628823634   F   F   F
  0.6421399887681858  0.4999999579881660  0.1783425262226572   F   F   F
  0.6418657286753486  0.4999999579881660  0.4333727360001802   F   F   F
  0.3642600128490372  0.4999999579881660  0.1768174981692923   F   F   F
  0.3623204332984997  0.4999999579881660  0.4304401578020105   F   F   F
  0.1421398634810629  0.0000000000000000  0.1783425262226572   F   F   F
  0.1403802983232083  0.0000000000000000  0.4312925457763370   F   F   F
  0.8642599627814960  0.0000000000000000  0.1768174981692923   F   F   F
  0.8640413102967628  0.0000000000000000  0.4300178276640807   F   F   F
  0.1416500543789141  0.4999999579881660  0.0589150170796771   F   F   F
  0.1413260256517646  0.4999999579881660  0.3102542336217340   F   F   F
  0.8647499291719924  0.4999999579881660  0.0462449857511871   F   F   F
  0.8641702453794338  0.4999999579881660  0.2976935003410901   F   F   F
  0.6416500293319984  0.0000000000000000  0.0589150170796771   F   F   F
  0.6405347137756650  0.0000000000000000  0.3106032522310613   F   F   F
  0.3647500043652911  0.0000000000000000  0.0462449857511871   F   F   F
  0.3649491685576436  0.0000000000000000  0.2980090613107222   F   F   F
  0.1581999853227956  0.4999999579881660  0.1313550257704037   F   F   F
  0.1585918401474231  0.4999999579881660  0.3842273923823072   F   F   F
  0.8482000477492093  0.4999999579881660  0.2238049986518931   F   F   F
  0.8476253835488734  0.4999999579881660  0.4769372841156425   F   F   F
  0.6581999539681647  0.0000000000000000  0.1313550257704037   F   F   F
  0.6590121955148618  0.0000000000000000  0.3853677590645148   F   F   F
  0.3481999599930319  0.0000000000000000  0.2238049986518931   F   F   F
  0.3463620979504540  0.0000000000000000  0.4794317873756881   F   F   F
  0.0177000091358082  0.4999999579881660  0.2055549930513223   F   F   F
  0.0172313390837928  0.4999999579881660  0.4581518986481115   F   F   F
  0.9886999244848909  0.4999999579881660  0.1496049879422756   F   F   F
  0.9876274628961568  0.4999999579881660  0.4020756459770922   F   F   F
  0.5176998964115640  0.0000000000000000  0.2055549930513223   F   F   F
  0.5173663319707131  0.0000000000000000  0.4603357322361177   F   F   F
  0.4887000246988151  0.0000000000000000  0.1496049879422756   F   F   F
  0.4874137502519389  0.0000000000000000  0.4036286759815653   F   F   F
  0.1097417197578991  0.4999999579881660  0.5284117820033245   F   F   F
  0.6722256357118468  0.4999999579881660  0.5245092800173410   F   F   F
  0.5937528223540411  0.0000000000703722  0.5284390147587699   F   F   T
 
  0.00000000E+00  0.00000000E+00  0.00000000E+00
  0.00000000E+00  0.00000000E+00  0.00000000E+00
  0.00000000E+00  0.00000000E+00  0.00000000E+00
  0.00000000E+00  0.00000000E+00  0.00000000E+00
  0.00000000E+00  0.00000000E+00  0.00000000E+00
  0.00000000E+00  0.00000000E+00  0.00000000E+00
  0.00000000E+00  0.00000000E+00  0.00000000E+00
  0.00000000E+00  0.00000000E+00  0.00000000E+00
  0.00000000E+00  0.00000000E+00  0.00000000E+00
  0.00000000E+00  0.00000000E+00  0.00000000E+00
  0.00000000E+00  0.00000000E+00  0.00000000E+00
  0.00000000E+00  0.00000000E+00  0.00000000E+00
  0.00000000E+00  0.00000000E+00  0.00000000E+00
  0.00000000E+00  0.00000000E+00  0.00000000E+00
  0.00000000E+00  0.00000000E+00  0.00000000E+00
  0.00000000E+00  0.00000000E+00  0.00000000E+00
  0.00000000E+00  0.00000000E+00  0.00000000E+00
  0.00000000E+00  0.00000000E+00  0.00000000E+00
  0.00000000E+00  0.00000000E+00  0.00000000E+00
  0.00000000E+00  0.00000000E+00  0.00000000E+00
  0.00000000E+00  0.00000000E+00  0.00000000E+00
  0.00000000E+00  0.00000000E+00  0.00000000E+00
  0.00000000E+00  0.00000000E+00  0.00000000E+00
  0.00000000E+00  0.00000000E+00  0.00000000E+00
  0.00000000E+00  0.00000000E+00  0.00000000E+00
  0.00000000E+00  0.00000000E+00  0.00000000E+00
  0.00000000E+00  0.00000000E+00  0.00000000E+00
  0.00000000E+00  0.00000000E+00  0.00000000E+00
  0.00000000E+00  0.00000000E+00  0.00000000E+00
  0.00000000E+00  0.00000000E+00  0.00000000E+00
  0.00000000E+00  0.00000000E+00  0.00000000E+00
  0.00000000E+00  0.00000000E+00  0.00000000E+00
  0.00000000E+00  0.00000000E+00  0.00000000E+00
  0.00000000E+00  0.00000000E+00  0.00000000E+00
  0.00000000E+00  0.00000000E+00  0.00000000E+00
  0.00000000E+00  0.00000000E+00  0.00000000E+00
  0.00000000E+00  0.00000000E+00  0.00000000E+00
  0.00000000E+00  0.00000000E+00  0.00000000E+00
  0.00000000E+00  0.00000000E+00  0.00000000E+00
  0.00000000E+00  0.00000000E+00  0.00000000E+00
  0.00000000E+00  0.00000000E+00  0.00000000E+00
  0.00000000E+00  0.00000000E+00  0.00000000E+00
  0.00000000E+00  0.00000000E+00  0.00000000E+00
  0.00000000E+00  0.00000000E+00  0.00000000E+00
  0.00000000E+00  0.00000000E+00  0.00000000E+00
  0.00000000E+00  0.00000000E+00  0.00000000E+00
  0.00000000E+00  0.00000000E+00  0.00000000E+00
  0.00000000E+00  0.00000000E+00  0.00000000E+00
  0.00000000E+00  0.00000000E+00  0.00000000E+00
  0.00000000E+00  0.00000000E+00  0.00000000E+00
  0.00000000E+00  0.00000000E+00  0.00000000E+00
  0.00000000E+00  0.00000000E+00  0.00000000E+00
  0.00000000E+00  0.00000000E+00  0.00000000E+00
