Nickel zinc boride (3/1/2)              
1.0
        9.5121507645         0.0000000000         0.0000000000
        0.0000000000         2.8420565128         0.0000000000
       -6.6775160995         0.0000000000        32.9505610662
   Ni   Zn    B    H
   26    8   16    4
Selective dynamics
Cartesian
     0.506344438         1.421028137         7.921233654 F F F
    -1.237221479         1.421028137        16.294910431 F F F
     6.695097923         1.421028137         3.781489134 F F F
     5.008362293         1.421028137        12.099159241 F F F
     5.262419701         0.000000000         7.921233654 F F F
     3.587621927         0.000000000        16.412982941 F F F
     1.939022660         0.000000000         3.781489134 F F F
     0.261741161         0.000000000        12.096514702 F F F
     4.756074905         1.421028137         0.000000000 F F F
     1.389485836         1.421028137        16.556865692 F F F
     3.069177866         1.421028137         8.260231018 F F F
     4.114745617         1.421028137         3.465081215 F F F
     2.444895267         1.421028137        11.827157974 F F F
     0.000000000         0.000000000         0.000000000 F F F
     6.122287273         0.000000000        16.622959137 F F F
     7.826683998         0.000000000         8.256035805 F F F
    -0.641330123         0.000000000         3.465081215 F F F
    -2.311199903         0.000000000        11.777115822 F F F
     4.917247295         1.421028137         5.876486301 F F F
     3.211670160         1.421028137        14.279874802 F F F
     2.284194469         1.421028137         5.826235771 F F F
     0.572175503         1.421028137        14.183244705 F F F
     0.161170721         0.000000000         5.876486301 F F F
    -1.544644356         0.000000000        14.211331367 F F F
     7.040269375         0.000000000         5.826235771 F F F
     5.347440243         0.000000000        14.169328690 F F F
     0.953990698         1.421028137         1.941282868 F F F
    -0.727413177         1.421028137        10.223051071 F F F
     7.916830063         1.421028137         1.523798227 F F F
     6.232264519         1.421028137         9.809167862 F F F
     5.710065842         0.000000000         1.941282868 F F F
     4.018804550         0.000000000        10.234551430 F F F
     3.160755396         0.000000000         1.523798227 F F F
     1.481491208         0.000000000         9.819565773 F F F
     0.627696812         1.421028137         4.328221798 F F F
    -1.057135105         1.421028137        12.660508156 F F F
     6.573745251         1.421028137         7.374500275 F F F
     4.877984047         1.421028137        15.715351105 F F F
     5.383771896         0.000000000         4.328221798 F F F
     3.695323944         0.000000000        12.698083878 F F F
     1.817669034         0.000000000         7.374500275 F F F
     0.093235016         0.000000000        15.797546387 F F F
    -1.204231620         1.421028137         6.773152351 F F F
    -2.895409584         1.421028137        15.096362114 F F F
     8.405673027         1.421028137         4.929568291 F F F
     6.709594727         1.421028137        13.248618126 F F F
     3.551842690         0.000000000         6.773152351 F F F
     1.847367287         0.000000000        15.168320656 F F F
     3.649598598         0.000000000         4.929568291 F F F
     1.941116095         0.000000000        13.299791336 F F F
    -2.484598398         1.421028137        17.411464691 F F F
     2.891892433         1.421028137        17.282875061 F F F 
     2.091892433         2.842056513        17.547143936 F F T
	-1.784598398         2.842056513        17.411464691 F F T
