Nickel zinc boride (2/1/1)              
1.0
        9.5242481232         0.0000000000         0.0000000000
        0.0000000000         2.8023560047         0.0000000000
       -1.0730181131         0.0000000000        23.9508313985
   Ni   Zn    B    H
   16   10    8    1
Selective dynamics
Cartesian
     5.441464424         0.000000000         3.986616373 F F F
     5.259817123         0.000000000         9.967834473 F F F
     6.324499130         0.000000000         1.602550626 F F F
     6.078060627         0.000000000         7.593406677 F F F
     0.679339528         1.401178002         3.986616373 F F F
     0.530097842         1.401178002        10.077824593 F F F
     1.562374830         1.401178002         1.602550626 F F F
     1.298229694         1.401178002         7.629303932 F F F
     8.023054123         0.000000000         3.773094177 F F F
     7.800941944         0.000000000         9.883465767 F F F
     3.742910147         0.000000000         1.816072226 F F F
     3.496919394         0.000000000         7.836951256 F F F
     3.260930061         1.401178002         3.773094177 F F F
     3.070190191         1.401178002         9.853317261 F F F
     8.505033493         1.401178002         1.816072226 F F F
     8.273095131         1.401178002         7.869616508 F F F
     2.241714954         0.000000000         5.589165688 F F F
     2.055523872         0.000000000        11.749703407 F F F
     0.000000000         0.000000000         0.000000000 F F F
    -0.509995401         0.000000000        12.058629036 F F F
    -0.268254489         0.000000000         5.987707138 F F F
     7.003839016         1.401178002         5.589165688 F F F
     6.781067371         1.401178002        11.759963036 F F F
     4.762124062         1.401178002         0.000000000 F F F
     4.240686893         1.401178002        12.057399750 F F F
     4.493869781         1.401178002         5.987707138 F F F
     1.993749738         0.000000000         3.102950335 F F F
     1.803371906         0.000000000         9.115395546 F F F
     0.247965574         0.000000000         2.486215591 F F F
     0.014759392         0.000000000         8.578895569 F F F
     6.755874634         1.401178002         3.102950335 F F F
     6.549420357         1.401178002         9.100457191 F F F
     5.010089397         1.401178002         2.486215591 F F F
     4.782927513         1.401178002         8.502052307 F F F
     5.629521370         1.401178002        13.063162804 F F T
