Nickel zinc boride (3/1/2)              
1.0
        9.5155229568         0.0000000000         0.0000000000
        0.0000000000         2.8443119526         0.0000000000
       -6.7200700750         0.0000000000        33.1553294495
   Ni   Zn    B    H
   24   10   16    1
Selective dynamics
Cartesian
    -0.455098093         0.000000000         6.017112732 F F F
    -2.151240110         0.000000000        14.320209503 F F F
     5.740898132         0.000000000         1.851642966 F F F
     4.070669174         0.000000000        10.149691582 F F F
     4.302663803         1.422155857         6.017112732 F F F
     2.601426125         1.422155857        14.395714760 F F F
     0.983136773         1.422155857         1.851642966 F F F
    -0.683705807         1.422155857        10.159068108 F F F
     2.125783443         0.000000000         6.335486889 F F F
     0.403844595         0.000000000        14.689521790 F F F
     3.160017490         0.000000000         1.533268929 F F F
     1.500155568         0.000000000         9.859014511 F F F
     6.883544922         1.422155857         6.335486889 F F F
     5.190261841         1.422155857        14.681758881 F F F
     7.917779446         1.422155857         1.533268929 F F F
     6.254462242         1.422155857         9.842628479 F F F
     3.959862709         0.000000000         3.959658623 F F F
     2.268307924         0.000000000        12.301138878 F F F
     1.325937986         0.000000000         3.909096956 F F F
    -0.343364954         0.000000000        12.242775917 F F F
    -0.797899306         1.422155857         3.959658623 F F F
    -2.478855371         1.422155857        12.256916046 F F F
     6.083699703         1.422155857         3.909096956 F F F
     4.392932892         1.422155857        12.221193314 F F F
     0.000000000         0.000000000         0.000000000 F F F
    -3.261805773         0.000000000        16.630945206 F F F
    -1.681276202         0.000000000         8.296595573 F F F
     5.285800934         0.000000000         7.868755341 F F F
     3.703588963         0.000000000        16.192873001 F F F
     4.757761002         1.422155857         0.000000000 F F F
     1.443848848         1.422155857        16.638502121 F F F
     3.073275089         1.422155857         8.296851158 F F F
     0.528038621         1.422155857         7.868755341 F F F
    -1.136887789         1.422155857        16.242761612 F F F
    -0.329320431         0.000000000         2.401771784 F F F
    -2.004344463         0.000000000        10.715933800 F F F
     5.615119934         0.000000000         5.466983318 F F F
     3.922095299         0.000000000        13.750792503 F F F
     4.428442478         1.422155857         2.401771784 F F F
     2.755100965         1.422155857        10.725527763 F F F
     0.857359052         1.422155857         5.466983318 F F F
    -0.840244889         1.422155857        13.766641617 F F F
     7.350643635         0.000000000         4.861898422 F F F
     5.665655136         0.000000000        13.176384926 F F F
     7.450680256         0.000000000         3.006856918 F F F
     5.763701916         0.000000000        11.321323395 F F F
     2.592881203         1.422155857         4.861898422 F F F
     0.910338163         1.422155857        13.197734833 F F F
     2.692919254         1.422155857         3.006856918 F F F
     1.012560129         1.422155857        11.329017639 F F F
     1.477433443         1.422155857        18.194572449 F F T

