Nickel zinc boride (2/1/1)              
1.0
        9.5242481232         0.0000000000         0.0000000000
        0.0000000000         2.8023560047         0.0000000000
       -1.0730181131         0.0000000000        23.9508313985
   Ni   Zn    B    H
   16   10    8    1
Selective dynamics
Cartesian
     5.441464424         0.000000000         3.986616373 F F F
     5.191532135         0.000000000         9.983434677 F F F
     6.324499130         0.000000000         1.602550626 F F F
     6.031757355         0.000000000         7.609834671 F F F
     0.679339528         1.401178002         3.986616373 F F F
     0.429407716         1.401178002         9.983434677 F F F
     1.562374830         1.401178002         1.602550626 F F F
     1.269633651         1.401178002         7.609834671 F F F
     8.023054123         0.000000000         3.773094177 F F F
     7.759869576         0.000000000         9.853877068 F F F
     3.742910147         0.000000000         1.816072226 F F F
     3.454056978         0.000000000         7.841646671 F F F
     3.260930061         1.401178002         3.773094177 F F F
     2.997745514         1.401178002         9.853877068 F F F
     8.505033493         1.401178002         1.816072226 F F F
     8.216179848         1.401178002         7.841646671 F F F
     2.241714954         0.000000000         5.589165688 F F F
     1.929026484         0.000000000        11.664638519 F F F
     0.000000000         0.000000000         0.000000000 F F F
     8.933682442         0.000000000        12.122368813 F F F
    -0.268254489         0.000000000         5.987707138 F F F
     7.003839016         1.401178002         5.589165688 F F F
     6.691151142         1.401178002        11.664638519 F F F
     4.762124062         1.401178002         0.000000000 F F F
     4.171557903         1.401178002        12.122368813 F F F
     4.493869781         1.401178002         5.987707138 F F F
     1.993749738         0.000000000         3.102950335 F F F
     1.734126210         0.000000000         9.115993500 F F F
     0.247965574         0.000000000         2.486215591 F F F
    -0.037755489         0.000000000         8.521986961 F F F
     6.755874634         1.401178002         3.102950335 F F F
     6.496250629         1.401178002         9.115993500 F F F
     5.010089397         1.401178002         2.486215591 F F F
     4.724367142         1.401178002         8.521986961 F F F
     8.121092796         1.401178002        12.950545311 F F T
     