Nickel zinc boride (3/1/2)              
   1.00000000000000     
     9.5121507644999994    0.0000000000000000    0.0000000000000000
     0.0000000000000000    2.8420565128000002    0.0000000000000000
    -6.6775160995000000    0.0000000000000000   32.9505610662000024
   Ni   Zn   B    H 
    26     8    16     1
Selective dynamics
Direct
  0.2219900548478719  0.4999999579881660  0.2403975204272157   F   F   F
  0.2402820051710890  0.4999999579881660  0.4988741017670719   T   T   T
  0.7844100220414916  0.4999999579881660  0.1147625039647338   F   F   F
  0.7904207111903361  0.4999999579881660  0.3685842171892233   T   T   T
  0.7219900298009634  0.0000000000000000  0.2403975204272157   F   F   F
  0.7402425887155459  0.0000000000000000  0.4955858592378775   T   T   T
  0.2844100345780873  0.0000000000000000  0.1147625039647338   F   F   F
  0.2923410382676082  0.0000000000000000  0.3663568983846517   T   T   T
  0.4999999498273269  0.4999999579881660  0.0000000000000000   F   F   F
  0.5172516787712169  0.4999999579881660  0.5005289479390669   T   T   T
  0.5000016450372797  0.4999999579881660  0.2511511443700343   T   T   T
  0.5063999610079790  0.4999999579881660  0.1051600064726799   F   F   F
  0.5174666815703759  0.4999999579881660  0.3606775629498529   T   T   T
  0.0000000000000000  0.0000000000000000  0.0000000000000000   F   F   F
  0.0203056441364282  0.0000000000000000  0.5048772053239006   T   T   T
  0.9989840095603313  0.0000000000000000  0.2504627435147100   T   T   T
  0.0063999735445748  0.0000000000000000  0.1051600064726799   F   F   F
  0.0152749896932463  0.0000000000000000  0.3595636750660844   T   T   T
  0.6421399887681858  0.4999999579881660  0.1783425262226572   F   F   F
  0.6529669519100736  0.4999999579881660  0.4336827029513373   T   T   T
  0.3642600128490372  0.4999999579881660  0.1768174981692923   F   F   F
  0.3685899203483487  0.4999999579881660  0.4307964794883787   T   T   T
  0.1421398634810629  0.0000000000000000  0.1783425262226572   F   F   F
  0.1489143957266279  0.0000000000000000  0.4339805009292519   T   T   T
  0.8642599627814960  0.0000000000000000  0.1768174981692923   F   F   F
  0.8756694042248228  0.0000000000000000  0.4324788193441762   T   T   T
  0.1416500543789141  0.4999999579881660  0.0589150170796771   F   F   F
  0.1424353395924527  0.4999999579881660  0.3106231874155512   T   T   T
  0.8647499291719924  0.4999999579881660  0.0462449857511871   F   F   F
  0.8709759498400089  0.4999999579881660  0.2991769973472387   T   T   T
  0.6416500293319984  0.0000000000000000  0.0589150170796771   F   F   F
  0.6470288428360362  0.0000000000000000  0.3121759357099947   T   T   T
  0.3647500043652911  0.0000000000000000  0.0462449857511871   F   F   F
  0.3714505780107089  0.0000000000000000  0.2987190558253801   T   T   T
  0.1581999814682220  0.4999999579881660  0.1313550112941684   F   F   F
  0.1679243052418329  0.4999999579881660  0.3858241925334269   T   T   T
  0.8482000477492093  0.4999999579881660  0.2238049986518931   F   F   F
  0.8651114724296960  0.4999999579881660  0.4810248727045447   T   T   T
  0.6581999438058688  0.0000000000000000  0.1313550112941684   F   F   F
  0.6685618269974398  0.0000000000000000  0.3876641625366304   T   T   T
  0.3481999599930319  0.0000000000000000  0.2238049986518931   F   F   F
  0.3625049119282764  0.0000000000000000  0.4802721427836900   T   T   T
  0.0177000091358082  0.4999999579881660  0.2055549930513223   F   F   F
  0.0326949605642497  0.4999999579881660  0.4617839726698350   T   T   T
  0.9886999244848909  0.4999999579881660  0.1496049879422756   F   F   F
  0.9947866264797653  0.4999999579881660  0.4040827195613517   T   T   T
  0.5176998964115640  0.0000000000000000  0.2055549930513223   F   F   F
  0.5315236427550190  0.0000000000000000  0.4601288043480665   T   T   T
  0.4887000246988151  0.0000000000000000  0.1496049879422756   F   F   F
  0.4936950930303752  0.0000000000000000  0.4039375746026934   T   T   T
  0.1843819861744294  0.4999999579881660  0.5425390754816846   T   T   T
 
  0.00000000E+00  0.00000000E+00  0.00000000E+00
  0.00000000E+00  0.00000000E+00  0.00000000E+00
  0.00000000E+00  0.00000000E+00  0.00000000E+00
  0.00000000E+00  0.00000000E+00  0.00000000E+00
  0.00000000E+00  0.00000000E+00  0.00000000E+00
  0.00000000E+00  0.00000000E+00  0.00000000E+00
  0.00000000E+00  0.00000000E+00  0.00000000E+00
  0.00000000E+00  0.00000000E+00  0.00000000E+00
  0.00000000E+00  0.00000000E+00  0.00000000E+00
  0.00000000E+00  0.00000000E+00  0.00000000E+00
  0.00000000E+00  0.00000000E+00  0.00000000E+00
  0.00000000E+00  0.00000000E+00  0.00000000E+00
  0.00000000E+00  0.00000000E+00  0.00000000E+00
  0.00000000E+00  0.00000000E+00  0.00000000E+00
  0.00000000E+00  0.00000000E+00  0.00000000E+00
  0.00000000E+00  0.00000000E+00  0.00000000E+00
  0.00000000E+00  0.00000000E+00  0.00000000E+00
  0.00000000E+00  0.00000000E+00  0.00000000E+00
  0.00000000E+00  0.00000000E+00  0.00000000E+00
  0.00000000E+00  0.00000000E+00  0.00000000E+00
  0.00000000E+00  0.00000000E+00  0.00000000E+00
  0.00000000E+00  0.00000000E+00  0.00000000E+00
  0.00000000E+00  0.00000000E+00  0.00000000E+00
  0.00000000E+00  0.00000000E+00  0.00000000E+00
  0.00000000E+00  0.00000000E+00  0.00000000E+00
  0.00000000E+00  0.00000000E+00  0.00000000E+00
  0.00000000E+00  0.00000000E+00  0.00000000E+00
  0.00000000E+00  0.00000000E+00  0.00000000E+00
  0.00000000E+00  0.00000000E+00  0.00000000E+00
  0.00000000E+00  0.00000000E+00  0.00000000E+00
  0.00000000E+00  0.00000000E+00  0.00000000E+00
  0.00000000E+00  0.00000000E+00  0.00000000E+00
  0.00000000E+00  0.00000000E+00  0.00000000E+00
  0.00000000E+00  0.00000000E+00  0.00000000E+00
  0.00000000E+00  0.00000000E+00  0.00000000E+00
  0.00000000E+00  0.00000000E+00  0.00000000E+00
  0.00000000E+00  0.00000000E+00  0.00000000E+00
  0.00000000E+00  0.00000000E+00  0.00000000E+00
  0.00000000E+00  0.00000000E+00  0.00000000E+00
  0.00000000E+00  0.00000000E+00  0.00000000E+00
  0.00000000E+00  0.00000000E+00  0.00000000E+00
  0.00000000E+00  0.00000000E+00  0.00000000E+00
  0.00000000E+00  0.00000000E+00  0.00000000E+00
  0.00000000E+00  0.00000000E+00  0.00000000E+00
  0.00000000E+00  0.00000000E+00  0.00000000E+00
  0.00000000E+00  0.00000000E+00  0.00000000E+00
  0.00000000E+00  0.00000000E+00  0.00000000E+00
  0.00000000E+00  0.00000000E+00  0.00000000E+00
  0.00000000E+00  0.00000000E+00  0.00000000E+00
  0.00000000E+00  0.00000000E+00  0.00000000E+00
  0.00000000E+00  0.00000000E+00  0.00000000E+00
