Nickel zinc boride (2/1/1)
1.0
        9.5296001434         0.0000000000         0.0000000000
        0.0000000000         2.8371000290         0.0000000000
       -1.2591798252         0.0000000000        23.9625389592
   Ni   Zn    B
   16    8    8
Selective dynamics
Cartesian
    4.313799    0.000000    1.192616 F F F
    3.999004    0.000000    7.183250 T T T
    4.901006    0.000000    4.798019 F F F
    4.586211    0.000000   10.788654 T T T
    9.078598    1.418550    1.192616 F F F
    8.763803    1.418550    7.183250 T T T
    0.136206    1.418550    4.798019 F F F
   -0.178589    1.418550   10.788654 T T T
    6.898495    0.000000    0.978990 F F F
    6.583700    0.000000    6.969624 T T T
    2.316311    0.000000    5.011646 F F F
    2.001516    0.000000   11.002280 T T T
    2.133694    1.418550    0.978990 F F F
    1.818899    1.418550    6.969624 T T T
    7.081111    1.418550    5.011646 F F F
    6.766316    1.418550   11.002280 T T T
    1.099836    0.000000    2.795949 F F F
    0.785042    0.000000    8.786584 T T T
    8.114969    0.000000    3.194686 F F F
    7.800175    0.000000    9.185321 T T T
    5.864636    1.418550    2.795949 F F F
    5.549841    1.418550    8.786584 T T T
    3.350169    1.418550    3.194686 F F F
    3.035374    1.418550    9.185321 T T T
    0.870994    0.000000    0.308518 F F F
    0.556199    0.000000    6.299152 T T T
    8.343811    0.000000    5.682117 F F F
    8.029016    0.000000   11.672751 T T T
    5.635794    1.418550    0.308518 F F F
    5.320999    1.418550    6.299152 T T T
    3.579011    1.418550    5.682117 F F F
    3.264216    1.418550   11.672751 T T T
