Nickel zinc boride (2/1/1)              
   1.00000000000000     
     9.6081864154024164    0.0000000000000000   -0.0198168135528453
     0.0000000000000000    2.6930899951130174    0.0000000000000000
    -0.7371606906288014    0.0000000000000000   24.2918242660720338
   Ni   Zn   B    H 
    16     8     8     1
Selective dynamics
Direct
  0.4592499479736958  0.0000000000000000  0.0497700204952878   F   F   F
  0.4666511654846914  0.0000000000000000  0.3012793720810478   F   F   F
  0.5407500164678467  0.0000000000000000  0.2002299898219420   F   F   F
  0.5393478604607225  0.0000000000000000  0.4564715966150246   F   F   F
  0.9592498488149204  0.5000000001114770  0.0497700204952878   F   F   F
  0.9666510167179254  0.5000000001114770  0.3012793720810478   F   F   F
  0.0407500350266474  0.5000000001114770  0.2002299898219420   F   F   F
  0.0393479162515078  0.5000000001114770  0.4564715966150246   F   F   F
  0.7293001514944564  0.0000000000000000  0.0408550205356732   F   F   F
  0.7342636080066214  0.0000000000000000  0.2942816109205140   F   F   F
  0.2706999406748523  0.0000000000000000  0.2091450438310645   F   F   F
  0.2676435025850168  0.0000000000000000  0.4646891333239935   F   F   F
  0.2293000523252786  0.5000000001114770  0.0408550205356732   F   F   F
  0.2342634839814508  0.5000000001114770  0.2942816109205140   F   F   F
  0.7706999158760581  0.5000000001114770  0.2091450438310645   F   F   F
  0.7676435273942133  0.5000000001114770  0.4646891333239935   F   F   F
  0.1308299482658555  0.0000000000000000  0.1166799939853860   F   F   F
  0.1312368517530444  0.0000000000000000  0.3723996177250584   F   F   F
  0.8691700041504191  0.0000000000000000  0.1333200212379353   F   F   F
  0.8700160393347716  0.0000000000000000  0.3837029328171582   F   F   F
  0.6308299109870603  0.5000000001114770  0.1166799939853860   F   F   F
  0.6312367153622773  0.5000000001114770  0.3723996177250584   F   F   F
  0.3691700537012039  0.5000000001114770  0.1333200212379353   F   F   F
  0.3700159154136031  0.5000000001114770  0.3837029328171582   F   F   F
  0.0931000163117375  0.0000000000000000  0.0128750131244786   F   F   F
  0.0966917059452115  0.0000000000000000  0.2624367738352973   F   F   F
  0.9068999793841002  0.0000000000000000  0.2371250008620152   F   F   F
  0.9076719283646923  0.0000000000000000  0.4776877136813624   F   F   F
  0.5931000348809334  0.5000000001114770  0.0128750131244786   F   F   F
  0.5966917431303997  0.5000000001114770  0.2624367738352973   F   F   F
  0.4068999545749108  0.5000000001114770  0.2371250008620152   F   F   F
  0.4076720026674749  0.5000000001114770  0.4776877136813624   F   F   F
  0.7714737175074139  0.5000000001114770  0.5256887651451261   F   F   T
 
  0.00000000E+00  0.00000000E+00  0.00000000E+00
  0.00000000E+00  0.00000000E+00  0.00000000E+00
  0.00000000E+00  0.00000000E+00  0.00000000E+00
  0.00000000E+00  0.00000000E+00  0.00000000E+00
  0.00000000E+00  0.00000000E+00  0.00000000E+00
  0.00000000E+00  0.00000000E+00  0.00000000E+00
  0.00000000E+00  0.00000000E+00  0.00000000E+00
  0.00000000E+00  0.00000000E+00  0.00000000E+00
  0.00000000E+00  0.00000000E+00  0.00000000E+00
  0.00000000E+00  0.00000000E+00  0.00000000E+00
  0.00000000E+00  0.00000000E+00  0.00000000E+00
  0.00000000E+00  0.00000000E+00  0.00000000E+00
  0.00000000E+00  0.00000000E+00  0.00000000E+00
  0.00000000E+00  0.00000000E+00  0.00000000E+00
  0.00000000E+00  0.00000000E+00  0.00000000E+00
  0.00000000E+00  0.00000000E+00  0.00000000E+00
  0.00000000E+00  0.00000000E+00  0.00000000E+00
  0.00000000E+00  0.00000000E+00  0.00000000E+00
  0.00000000E+00  0.00000000E+00  0.00000000E+00
  0.00000000E+00  0.00000000E+00  0.00000000E+00
  0.00000000E+00  0.00000000E+00  0.00000000E+00
  0.00000000E+00  0.00000000E+00  0.00000000E+00
  0.00000000E+00  0.00000000E+00  0.00000000E+00
  0.00000000E+00  0.00000000E+00  0.00000000E+00
  0.00000000E+00  0.00000000E+00  0.00000000E+00
  0.00000000E+00  0.00000000E+00  0.00000000E+00
  0.00000000E+00  0.00000000E+00  0.00000000E+00
  0.00000000E+00  0.00000000E+00  0.00000000E+00
  0.00000000E+00  0.00000000E+00  0.00000000E+00
  0.00000000E+00  0.00000000E+00  0.00000000E+00
  0.00000000E+00  0.00000000E+00  0.00000000E+00
  0.00000000E+00  0.00000000E+00  0.00000000E+00
  0.00000000E+00  0.00000000E+00  0.00000000E+00
