Nickel zinc boride (2/1/1)              
   1.00000000000000     
     9.5705776039984087    0.0000000000000000    0.0011010650054042
     0.0000000000000000    2.7548873970830039    0.0000000000000000
    -0.6754989352438420    0.0000000000000000   23.9252675256028766
   Ni   Zn   B    H 
    16     8     8     4
Selective dynamics
Direct
  0.4592499479736958  0.0000000000000000  0.0497700204952878   F   F   F
  0.4612017274633247  0.0000000000000000  0.3006640526044793   T   T   T
  0.5407500164678467  0.0000000000000000  0.2002299898219420   F   F   F
  0.5283282730104557  0.0000000000000000  0.4572489653743440   T   T   T
  0.9592498488149204  0.5000000001114770  0.0497700204952878   F   F   F
  0.9612015786965586  0.5000000001114770  0.3006640526044793   T   T   T
  0.0407500350266474  0.5000000001114770  0.2002299898219420   F   F   F
  0.0283283288012410  0.5000000001114770  0.4572489653743440   T   T   T
  0.7293001514944564  0.0000000000000000  0.0408550205356732   F   F   F
  0.7295461948617622  0.0000000000000000  0.2940183867550073   T   T   T
  0.2706999406748523  0.0000000000000000  0.2091450438310645   F   F   F
  0.2556396067016446  0.0000000000000000  0.4763349440168609   T   T   T
  0.2293000523252786  0.5000000001114770  0.0408550205356732   F   F   F
  0.2295460708365916  0.5000000001114770  0.2940183867550073   T   T   T
  0.7706999158760581  0.5000000001114770  0.2091450438310645   F   F   F
  0.7556396315108410  0.5000000001114770  0.4763349440168609   T   T   T
  0.1308299482658555  0.0000000000000000  0.1166799939853860   F   F   F
  0.1243537245777102  0.0000000000000000  0.3717543023932208   T   T   T
  0.8691700041504191  0.0000000000000000  0.1333200212379353   F   F   F
  0.8611792531439856 -0.0000000000000000  0.3843902300602707   T   T   T
  0.6308299109870603  0.5000000001114770  0.1166799939853860   F   F   F
  0.6243535881869431  0.5000000001114770  0.3717543023932208   T   T   T
  0.3691700537012039  0.5000000001114770  0.1333200212379353   F   F   F
  0.3611791292228171  0.5000000001114770  0.3843902300602707   T   T   T
  0.0931000163117375  0.0000000000000000  0.0128750131244786   F   F   F
  0.0940794282501595  0.0000000000000000  0.2630665794244757   T   T   T
  0.9068999793841002  0.0000000000000000  0.2371250008620152   F   F   F
  0.8977835152801559  0.0000000000000000  0.4771663014056388   T   T   T
  0.5931000348809334  0.5000000001114770  0.0128750131244786   F   F   F
  0.5940794654353548  0.5000000001114770  0.2630665794244757   T   T   T
  0.4068999545749108  0.5000000001114770  0.2371250008620152   F   F   F
  0.3977835895829384  0.5000000001114770  0.4771663014056388   T   T   T
  0.9040421779527694  0.5000000001114770  0.5137035309407771   T   T   T
  0.1638613713024416  0.5000000001114770  0.5020107082710782   T   T   T
  0.4040421531435801  0.0000000000000000  0.5137035309407771   T   T   T
  0.6638613155116563  0.0000000000000000  0.5020107082710782   T   T   T
 
  0.00000000E+00  0.00000000E+00  0.00000000E+00
  0.00000000E+00  0.00000000E+00  0.00000000E+00
  0.00000000E+00  0.00000000E+00  0.00000000E+00
  0.00000000E+00  0.00000000E+00  0.00000000E+00
  0.00000000E+00  0.00000000E+00  0.00000000E+00
  0.00000000E+00  0.00000000E+00  0.00000000E+00
  0.00000000E+00  0.00000000E+00  0.00000000E+00
  0.00000000E+00  0.00000000E+00  0.00000000E+00
  0.00000000E+00  0.00000000E+00  0.00000000E+00
  0.00000000E+00  0.00000000E+00  0.00000000E+00
  0.00000000E+00  0.00000000E+00  0.00000000E+00
  0.00000000E+00  0.00000000E+00  0.00000000E+00
  0.00000000E+00  0.00000000E+00  0.00000000E+00
  0.00000000E+00  0.00000000E+00  0.00000000E+00
  0.00000000E+00  0.00000000E+00  0.00000000E+00
  0.00000000E+00  0.00000000E+00  0.00000000E+00
  0.00000000E+00  0.00000000E+00  0.00000000E+00
  0.00000000E+00  0.00000000E+00  0.00000000E+00
  0.00000000E+00  0.00000000E+00  0.00000000E+00
  0.00000000E+00  0.00000000E+00  0.00000000E+00
  0.00000000E+00  0.00000000E+00  0.00000000E+00
  0.00000000E+00  0.00000000E+00  0.00000000E+00
  0.00000000E+00  0.00000000E+00  0.00000000E+00
  0.00000000E+00  0.00000000E+00  0.00000000E+00
  0.00000000E+00  0.00000000E+00  0.00000000E+00
  0.00000000E+00  0.00000000E+00  0.00000000E+00
  0.00000000E+00  0.00000000E+00  0.00000000E+00
  0.00000000E+00  0.00000000E+00  0.00000000E+00
  0.00000000E+00  0.00000000E+00  0.00000000E+00
  0.00000000E+00  0.00000000E+00  0.00000000E+00
  0.00000000E+00  0.00000000E+00  0.00000000E+00
  0.00000000E+00  0.00000000E+00  0.00000000E+00
  0.00000000E+00  0.00000000E+00  0.00000000E+00
  0.00000000E+00  0.00000000E+00  0.00000000E+00
  0.00000000E+00  0.00000000E+00  0.00000000E+00
  0.00000000E+00  0.00000000E+00  0.00000000E+00
