Nickel zinc boride (2/1/1)              
   1.00000000000000     
     9.5241773006716226    0.0000000000000000    0.0366772510509100
     0.0000000000000000    2.8023559321621798    0.0000000000000000
    -1.1652445835445555    0.0000000000000000   23.9465211878193251
   Ni   Zn   B 
    16    10     8
Selective dynamics
Direct
  0.5900800052251327  0.0000000000000000  0.1664500162854665   F   F   F
  0.5954112088884669 -0.0000000000000000  0.4200695635261758   T   T   T
  0.6715799879356936  0.0000000000000000  0.0669100216270877   F   F   F
  0.6693719301813101 -0.0000000000000000  0.3182840896583983   T   T   T
  0.0900799078128571  0.4999999948891443  0.1664500162854665   F   F   F
  0.0954111114761984  0.4999999948891443  0.4200695635261758   T   T   T
  0.1715799954596164  0.4999999948891443  0.0669100216270877   F   F   F
  0.1693719377052336  0.4999999948891443  0.3182840896583983   T   T   T
  0.8601300991391412  0.0000000000000000  0.1575350177386241   F   F   F
  0.8614962609552141 -0.0000000000000000  0.4093129505859313   T   T   T
  0.4015299989578764  0.0000000000000000  0.0758250201739301   F   F   F
  0.4015757535846762 -0.0000000000000000  0.3266238624157615   T   T   T
  0.3601300017268656  0.4999999948891443  0.1575350177386241   F   F   F
  0.3614961635429386  0.4999999948891443  0.4093129505859313   T   T   T
  0.9015299914339536  0.4999999948891443  0.0758250201739301   F   F   F
  0.9015756411245549  0.4999999948891443  0.3266238624157615   T   T   T
  0.2616600026944980  0.0000000000000000  0.2333599961807522   F   F   F
  0.2603730089460005 -0.0000000000000000  0.4892347288558680   T   T   T
  0.0000000000000000  0.0000000000000000  0.0000000000000000   F   F   F
  0.9920528600713454  0.0000000000000000  0.5024112877240275   T   T   T
  0.9999999968490769  0.0000000000000000  0.2500000108586136   F   F   F
  0.7616599951705751  0.4999999948891443  0.2333599961807522   F   F   F
  0.7603730014220774  0.4999999948891443  0.4892347288558680   T   T   T
  0.4999999924760772  0.4999999948891443  0.0000000000000000   F   F   F
  0.4920528525474157  0.4999999948891443  0.5024112877240275   T   T   T
  0.4999999893251470  0.4999999948891443  0.2500000108586136   F   F   F
  0.2239299681072424  0.0000000000000000  0.1295550110648094   F   F   F
  0.2259687258322187 -0.0000000000000000  0.3801165947053559   T   T   T
  0.0377300345872555  0.0000000000000000  0.1038049851159428   F   F   F
  0.0374057405683155 -0.0000000000000000  0.3565293178963824   T   T   T
  0.7239300655195180  0.4999999948891443  0.1295550110648094   F   F   F
  0.7259687183082891  0.4999999948891443  0.3801165947053559   T   T   T
  0.5377299221271343  0.4999999948891443  0.1038049851159428   F   F   F
  0.5374056281081872  0.4999999948891443  0.3565293178963824   T   T   T
 
  0.00000000E+00  0.00000000E+00  0.00000000E+00
  0.00000000E+00  0.00000000E+00  0.00000000E+00
  0.00000000E+00  0.00000000E+00  0.00000000E+00
  0.00000000E+00  0.00000000E+00  0.00000000E+00
  0.00000000E+00  0.00000000E+00  0.00000000E+00
  0.00000000E+00  0.00000000E+00  0.00000000E+00
  0.00000000E+00  0.00000000E+00  0.00000000E+00
  0.00000000E+00  0.00000000E+00  0.00000000E+00
  0.00000000E+00  0.00000000E+00  0.00000000E+00
  0.00000000E+00  0.00000000E+00  0.00000000E+00
  0.00000000E+00  0.00000000E+00  0.00000000E+00
  0.00000000E+00  0.00000000E+00  0.00000000E+00
  0.00000000E+00  0.00000000E+00  0.00000000E+00
  0.00000000E+00  0.00000000E+00  0.00000000E+00
  0.00000000E+00  0.00000000E+00  0.00000000E+00
  0.00000000E+00  0.00000000E+00  0.00000000E+00
  0.00000000E+00  0.00000000E+00  0.00000000E+00
  0.00000000E+00  0.00000000E+00  0.00000000E+00
  0.00000000E+00  0.00000000E+00  0.00000000E+00
  0.00000000E+00  0.00000000E+00  0.00000000E+00
  0.00000000E+00  0.00000000E+00  0.00000000E+00
  0.00000000E+00  0.00000000E+00  0.00000000E+00
  0.00000000E+00  0.00000000E+00  0.00000000E+00
  0.00000000E+00  0.00000000E+00  0.00000000E+00
  0.00000000E+00  0.00000000E+00  0.00000000E+00
  0.00000000E+00  0.00000000E+00  0.00000000E+00
  0.00000000E+00  0.00000000E+00  0.00000000E+00
  0.00000000E+00  0.00000000E+00  0.00000000E+00
  0.00000000E+00  0.00000000E+00  0.00000000E+00
  0.00000000E+00  0.00000000E+00  0.00000000E+00
  0.00000000E+00  0.00000000E+00  0.00000000E+00
  0.00000000E+00  0.00000000E+00  0.00000000E+00
  0.00000000E+00  0.00000000E+00  0.00000000E+00
  0.00000000E+00  0.00000000E+00  0.00000000E+00
