Nickel zinc boride (3/1/2)
1.0
        9.5101003647         0.0000000000         0.0000000000
        0.0000000000         2.8921000957         0.0000000000
       -6.4946115869         0.0000000000        33.1155471160
   Ni   Zn    B
   26    8    16
Selective dynamics
Cartesian
    0.549859    1.446050    7.960895 F F F
   -1.073794    1.446050   16.239782 T T T 
    6.714480    1.446050    3.800423 F F F
    5.090827    1.446050   12.079309 T T T
    5.304909    0.000000    7.960895 F F F
    3.681256    0.000000   16.239782 T T T
    1.959430    0.000000    3.800423 F F F
    0.335777    0.000000   12.079309 T T T
    4.755050    1.446050    0.000000 F F F
    1.507744    1.446050   16.557774 T T T
    3.131397    1.446050    8.278887 T T T
    4.132941    1.446050    3.482431 F F F
    2.509288    1.446050   11.761317 T T T
    0.000000    0.000000    0.000000 F F F
   -3.247306    0.000000   16.557774 T T T
   -1.623653    0.000000    8.278887 T T T
   -0.622109    0.000000    3.482431 F F F
   -2.245762    0.000000   11.761317 T T T
    4.948550    1.446050    5.905910 F F F
    3.324897    1.446050   14.184797 T T T
    2.315788    1.446050    5.855408 F F F
    0.692135    1.446050   14.134295 T T T
    0.193499    0.000000    5.905910 F F F
   -1.430154    0.000000   14.184797 T T T
    7.070838    0.000000    5.855408 F F F
    5.447186    0.000000   14.134295 T T T
    0.964476    1.446050    1.951003 F F F
   -0.659177    1.446050   10.229890 T T T
    7.923516    1.446050    1.531428 F F F
    6.299864    1.446050    9.810314 T T T
    5.719526    0.000000    1.951003 F F F
    4.095873    0.000000   10.229890 T T T
    3.168466    0.000000    1.531428 F F F
    1.544813    0.000000    9.810314 T T T
    0.651398    1.446050    4.349893 F F F
   -0.972255    1.446050   12.628779 T T T
    6.612941    1.446050    7.411425 F F F
    4.989287    1.446050   15.690312 T T T
    5.406448    0.000000    4.349893 F F F
    3.782796    0.000000   12.628779 T T T
    1.857890    0.000000    7.411425 F F F
    0.234237    0.000000   15.690312 T T T
   -1.166671    1.446050    6.807066 F F F
   -2.790324    1.446050   15.085954 T T T
    8.431009    1.446050    4.954251 F F F
    6.807356    1.446050   13.233137 T T T
    3.588378    0.000000    6.807066 F F F
    1.964725    0.000000   15.085954 T T T
    3.675960    0.000000    4.954251 F F F
    2.052307    0.000000   13.233137 T T T
