Nickel zinc boride (2/1/1)              
   1.00000000000000     
     9.5242481231999996    0.0000000000000000    0.0000000000000000
     0.0000000000000000    2.8023560047000000    0.0000000000000000
    -1.0730181131000001    0.0000000000000000   23.9508313985000001
   Ni   Zn   B    H 
    16    10     8     2
Selective dynamics
Direct
  0.5900799977103830  0.0000000000000000  0.1664500203216193   F   F   F
  0.5978683759305525  0.0000000000000000  0.4168033041465904   T   T   T
  0.6715800251610986  0.0000000000000000  0.0669100207561186   F   F   F
  0.6728430269498347  0.0000000000000000  0.3169568938027894   T   T   T
  0.0900799101024177  0.4999999998751079  0.1664500203216193   F   F   F
  0.1017948557361237  0.4999999998751079  0.4171482003889366   T   T   T
  0.1715800001302554  0.4999999998751079  0.0669100207561186   F   F   F
  0.1730966727231973  0.4999999998751079  0.3177490506322940   T   T   T
  0.8601300526891649  0.0000000000000000  0.1575350080012825   F   F   F
  0.8643788378771688  0.0000000000000000  0.4070406438346126   T   T   T
  0.4015300185857242  0.0000000000000000  0.0758250181709244   F   F   F
  0.4051451897690512  0.0000000000000000  0.3271504454888685   T   T   T
  0.3601300276583217  0.4999999998751079  0.1575350080012825   F   F   F
  0.3705511121171270  0.4999999998751079  0.4120310053143754   T   T   T
  0.9015299685450273  0.4999999998751079  0.0758250181709244   F   F   F
  0.9030479584331488  0.4999999998751079  0.3247284475093224   T   T   T
  0.2616599917368490  0.0000000000000000  0.2333599863406022   F   F   F
  0.2652732296715712  0.0000000000000000  0.4872634834544129   T   T   T
  0.0000000000000000  0.0000000000000000  0.0000000000000000   F   F   F
  0.9942666913812914  0.0000000000000000  0.4966257972948256   T   T   T
  0.9999999998701838  0.0000000000000000  0.2499999902038894   F   F   F
  0.7616599666850021  0.4999999998751079  0.2333599863406022   F   F   F
  0.7504607844428008  0.4999999998751079  0.4871701379064959   T   T   T
  0.5000000000420002  0.4999999998751079  0.0000000000000000   F   F   F
  0.4940774425909709  0.4999999998751079  0.5104705104761322   T   T   T
  0.5000000249010341  0.4999999998751079  0.2499999902038894   F   F   F
  0.2239299720852230  0.0000000000000000  0.1295550155805572   F   F   F
  0.2345899559290388  0.0000000000000000  0.3789022748023143   T   T   T
  0.0377300332655750  0.0000000000000000  0.1038049806970704   F   F   F
  0.0401478238530828  0.0000000000000000  0.3543876522331857   T   T   T
  0.7239300596931884  0.4999999998751079  0.1295550155805572   F   F   F
  0.7292213798220288  0.4999999998751079  0.3779788865804647   T   T   T
  0.5377299582360351  0.4999999998751079  0.1038049806970704   F   F   F
  0.5412241728719067  0.4999999998751079  0.3554944503429240   T   T   T
  0.9191667079184924  0.4999999998751079  0.5336117079493334   T   T   T
  0.6553174318238177  0.4999999998751079  0.5495961437397412   T   T   T
 
  0.00000000E+00  0.00000000E+00  0.00000000E+00
  0.00000000E+00  0.00000000E+00  0.00000000E+00
  0.00000000E+00  0.00000000E+00  0.00000000E+00
  0.00000000E+00  0.00000000E+00  0.00000000E+00
  0.00000000E+00  0.00000000E+00  0.00000000E+00
  0.00000000E+00  0.00000000E+00  0.00000000E+00
  0.00000000E+00  0.00000000E+00  0.00000000E+00
  0.00000000E+00  0.00000000E+00  0.00000000E+00
  0.00000000E+00  0.00000000E+00  0.00000000E+00
  0.00000000E+00  0.00000000E+00  0.00000000E+00
  0.00000000E+00  0.00000000E+00  0.00000000E+00
  0.00000000E+00  0.00000000E+00  0.00000000E+00
  0.00000000E+00  0.00000000E+00  0.00000000E+00
  0.00000000E+00  0.00000000E+00  0.00000000E+00
  0.00000000E+00  0.00000000E+00  0.00000000E+00
  0.00000000E+00  0.00000000E+00  0.00000000E+00
  0.00000000E+00  0.00000000E+00  0.00000000E+00
  0.00000000E+00  0.00000000E+00  0.00000000E+00
  0.00000000E+00  0.00000000E+00  0.00000000E+00
  0.00000000E+00  0.00000000E+00  0.00000000E+00
  0.00000000E+00  0.00000000E+00  0.00000000E+00
  0.00000000E+00  0.00000000E+00  0.00000000E+00
  0.00000000E+00  0.00000000E+00  0.00000000E+00
  0.00000000E+00  0.00000000E+00  0.00000000E+00
  0.00000000E+00  0.00000000E+00  0.00000000E+00
  0.00000000E+00  0.00000000E+00  0.00000000E+00
  0.00000000E+00  0.00000000E+00  0.00000000E+00
  0.00000000E+00  0.00000000E+00  0.00000000E+00
  0.00000000E+00  0.00000000E+00  0.00000000E+00
  0.00000000E+00  0.00000000E+00  0.00000000E+00
  0.00000000E+00  0.00000000E+00  0.00000000E+00
  0.00000000E+00  0.00000000E+00  0.00000000E+00
  0.00000000E+00  0.00000000E+00  0.00000000E+00
  0.00000000E+00  0.00000000E+00  0.00000000E+00
  0.00000000E+00  0.00000000E+00  0.00000000E+00
  0.00000000E+00  0.00000000E+00  0.00000000E+00
