Nickel zinc boride (3/1/2)              
   1.00000000000000     
     9.5155229567999999    0.0000000000000000    0.0000000000000000
     0.0000000000000000    2.8443119526000000    0.0000000000000000
    -6.7200700749999998    0.0000000000000000   33.1553294495000017
   Ni   Zn   B    H 
    24    10    16     1
Selective dynamics
Direct
  0.0803400045012665  0.0000000000000000  0.1814825197609622   F   F   F
  0.0796838028367191  0.0000000000000000  0.4338176630067210   F   F   F
  0.6427599845101497  0.0000000000000000  0.0558475212505485   F   F   F
  0.6447287620528286  0.0000000000000000  0.3061928581485773   F   F   F
  0.5803400483874483  0.4999999580566410  0.1814825197609622   F   F   F
  0.5796838780401501  0.4999999580566410  0.4338176630067210   F   F   F
  0.1427599970580715  0.4999999580566410  0.0558475212505485   F   F   F
  0.1447287871066294  0.4999999580566410  0.3061928581485773   F   F   F
  0.3583500563273105  0.0000000000000000  0.1910850229568624   F   F   F
  0.3549308700838125  0.0000000000000000  0.4406880768069215   F   F   F
  0.3647500291919030  0.0000000000000000  0.0462450216739754   F   F   F
  0.3681034127114131  0.0000000000000000  0.2971349549702182   F   F   F
  0.8583500563903641  0.4999999580566410  0.1910850229568624   F   F   F
  0.8549309451821543  0.4999999580566410  0.4406880768069215   F   F   F
  0.8647500793835761  0.4999999580566410  0.0462450216739754   F   F   F
  0.8681033375289928  0.4999999580566410  0.2971349549702182   F   F   F
  0.5004899892439099  0.0000000000000000  0.1194275155380708   F   F   F
  0.5021594810965766  0.0000000000000000  0.3707567875844262   F   F   F
  0.2226100661727486  0.0000000000000000  0.1179025218842753   F   F   F
  0.2236299188599062  0.0000000000000000  0.3685520686685351   F   F   F
  0.0004899328518420  0.4999999580566410  0.1194275155380708   F   F   F
  0.0021593808813805  0.4999999580566410  0.3707567875844262   F   F   F
  0.7226100912475673  0.4999999580566410  0.1179025218842753   F   F   F
  0.7236299189229598  0.4999999580566410  0.3685520686685351   F   F   F
  0.0000000000000000  0.0000000000000000  0.0000000000000000   F   F   F
  0.0081904075787804  0.0000000000000000  0.5030436343093427   F   F   F
  0.9999840705932783  0.0000000000000000  0.2501698020112713   F   F   F
  0.7231000754640107  0.0000000000000000  0.2373300302440100   F   F   F
  0.7323803807274416  0.0000000000000000  0.4897852912526233   F   F   F
  0.4999999499344412  0.4999999580566410  0.0000000000000000   F   F   F
  0.5081903575132216  0.4999999580566410  0.5030436343093427   F   F   F
  0.4999839202494627  0.4999999580566410  0.2501698020112713   F   F   F
  0.2230999877547006  0.4999999580566410  0.2373300302440100   F   F   F
  0.2323803055240106  0.4999999580566410  0.4897852912526233   F   F   F
  0.0165499456969869  0.0000000000000000  0.0724399915150329   F   F   F
  0.0187107529419563  0.0000000000000000  0.3234892980127455   F   F   F
  0.7065499742903825  0.0000000000000000  0.1648900315204784   F   F   F
  0.7055515929173097  0.0000000000000000  0.4158542474144511   F   F   F
  0.5165500960407954  0.4999999580566410  0.0724399915150329   F   F   F
  0.5187108531571525  0.4999999580566410  0.3234892980127455   F   F   F
  0.2065500369669167  0.4999999580566410  0.1648900315204784   F   F   F
  0.2055516054652315  0.4999999580566410  0.4158542474144511   F   F   F
  0.8760501060630475  0.0000000000000000  0.1466400274925732   F   F   F
  0.8773049337381096  0.0000000000000000  0.3974516081365209   F   F   F
  0.8470499694006790  0.0000000000000000  0.0906900027212743   F   F   F
  0.8476853658382595  0.0000000000000000  0.3413994717573416   F   F   F
  0.3760500058478513  0.4999999580566410  0.1466400274925732   F   F   F
  0.3773047583825360  0.4999999580566410  0.3974516081365209   F   F   F
  0.3470500194662449  0.4999999580566410  0.0906900027212743   F   F   F
  0.3476853658802952  0.4999999580566410  0.3413994717573416   F   F   F
  0.1123831938380846  0.4999999580566410  0.5292103927650824   F   F   T
 
  0.00000000E+00  0.00000000E+00  0.00000000E+00
  0.00000000E+00  0.00000000E+00  0.00000000E+00
  0.00000000E+00  0.00000000E+00  0.00000000E+00
  0.00000000E+00  0.00000000E+00  0.00000000E+00
  0.00000000E+00  0.00000000E+00  0.00000000E+00
  0.00000000E+00  0.00000000E+00  0.00000000E+00
  0.00000000E+00  0.00000000E+00  0.00000000E+00
  0.00000000E+00  0.00000000E+00  0.00000000E+00
  0.00000000E+00  0.00000000E+00  0.00000000E+00
  0.00000000E+00  0.00000000E+00  0.00000000E+00
  0.00000000E+00  0.00000000E+00  0.00000000E+00
  0.00000000E+00  0.00000000E+00  0.00000000E+00
  0.00000000E+00  0.00000000E+00  0.00000000E+00
  0.00000000E+00  0.00000000E+00  0.00000000E+00
  0.00000000E+00  0.00000000E+00  0.00000000E+00
  0.00000000E+00  0.00000000E+00  0.00000000E+00
  0.00000000E+00  0.00000000E+00  0.00000000E+00
  0.00000000E+00  0.00000000E+00  0.00000000E+00
  0.00000000E+00  0.00000000E+00  0.00000000E+00
  0.00000000E+00  0.00000000E+00  0.00000000E+00
  0.00000000E+00  0.00000000E+00  0.00000000E+00
  0.00000000E+00  0.00000000E+00  0.00000000E+00
  0.00000000E+00  0.00000000E+00  0.00000000E+00
  0.00000000E+00  0.00000000E+00  0.00000000E+00
  0.00000000E+00  0.00000000E+00  0.00000000E+00
  0.00000000E+00  0.00000000E+00  0.00000000E+00
  0.00000000E+00  0.00000000E+00  0.00000000E+00
  0.00000000E+00  0.00000000E+00  0.00000000E+00
  0.00000000E+00  0.00000000E+00  0.00000000E+00
  0.00000000E+00  0.00000000E+00  0.00000000E+00
  0.00000000E+00  0.00000000E+00  0.00000000E+00
  0.00000000E+00  0.00000000E+00  0.00000000E+00
  0.00000000E+00  0.00000000E+00  0.00000000E+00
  0.00000000E+00  0.00000000E+00  0.00000000E+00
  0.00000000E+00  0.00000000E+00  0.00000000E+00
  0.00000000E+00  0.00000000E+00  0.00000000E+00
  0.00000000E+00  0.00000000E+00  0.00000000E+00
  0.00000000E+00  0.00000000E+00  0.00000000E+00
  0.00000000E+00  0.00000000E+00  0.00000000E+00
  0.00000000E+00  0.00000000E+00  0.00000000E+00
  0.00000000E+00  0.00000000E+00  0.00000000E+00
  0.00000000E+00  0.00000000E+00  0.00000000E+00
  0.00000000E+00  0.00000000E+00  0.00000000E+00
  0.00000000E+00  0.00000000E+00  0.00000000E+00
  0.00000000E+00  0.00000000E+00  0.00000000E+00
  0.00000000E+00  0.00000000E+00  0.00000000E+00
  0.00000000E+00  0.00000000E+00  0.00000000E+00
  0.00000000E+00  0.00000000E+00  0.00000000E+00
  0.00000000E+00  0.00000000E+00  0.00000000E+00
  0.00000000E+00  0.00000000E+00  0.00000000E+00
  0.00000000E+00  0.00000000E+00  0.00000000E+00
