Nickel zinc boride (2/1/1)              
   1.00000000000000     
     9.5242481231999996    0.0000000000000000    0.0000000000000000
     0.0000000000000000    2.8023560047000000    0.0000000000000000
    -1.0730181131000001    0.0000000000000000   23.9508313985000001
   Ni   Zn   B    H 
    16    10     8     3
Selective dynamics
Direct
  0.5900799977103830  0.0000000000000000  0.1664500203216193   F   F   F
  0.5935230504146405  0.0000000000000000  0.4154539854973198   T   T   T
  0.6715800251610986  0.0000000000000000  0.0669100207561186   F   F   F
  0.6686470132986626  0.0000000000000000  0.3167204209793847   T   T   T
  0.0900799101024177  0.4999999998751079  0.1664500203216193   F   F   F
  0.0910297117731856  0.4999999998751079  0.4171673473351554   T   T   T
  0.1715800001302554  0.4999999998751079  0.0669100207561186   F   F   F
  0.1674469846213960  0.4999999998751079  0.3178062471566114   T   T   T
  0.8601300526891649  0.0000000000000000  0.1575350080012825   F   F   F
  0.8598755881167035  0.0000000000000000  0.4116988249452095   T   T   T
  0.4015300185857242  0.0000000000000000  0.0758250181709244   F   F   F
  0.3983344743062561  0.0000000000000000  0.3278749344091158   T   T   T
  0.3601300276583217  0.4999999998751079  0.1575350080012825   F   F   F
  0.3597139119497657  0.4999999998751079  0.4124624394589096   T   T   T
  0.9015299685450273  0.4999999998751079  0.0758250181709244   F   F   F
  0.8991087872405721  0.4999999998751079  0.3274298325871479   T   T   T
  0.2616599917368490  0.0000000000000000  0.2333599863406022   F   F   F
  0.2611711477064618  0.0000000000000000  0.4896291466259343   T   T   T
  0.0000000000000000  0.0000000000000000  0.0000000000000000   F   F   F
  0.9966095963909678  0.0000000000000000  0.5059996377701833   T   T   T
  0.9999999998701838  0.0000000000000000  0.2499999902038894   F   F   F
  0.7616599666850021  0.4999999998751079  0.2333599863406022   F   F   F
  0.7558893397959692  0.4999999998751079  0.4885696626579460   T   T   T
  0.5000000000420002  0.4999999998751079  0.0000000000000000   F   F   F
  0.4928508625670077  0.4999999998751079  0.5022311826621521   T   T   T
  0.5000000249010341  0.4999999998751079  0.2499999902038894   F   F   F
  0.2239299720852230  0.0000000000000000  0.1295550155805572   F   F   F
  0.2238172201785473  0.0000000000000000  0.3810326273620148   T   T   T
  0.0377300332655750  0.0000000000000000  0.1038049806970704   F   F   F
  0.0351032191354386  0.0000000000000000  0.3562586697875700   T   T   T
  0.7239300596931884  0.4999999998751079  0.1295550155805572   F   F   F
  0.7248659711595823  0.4999999998751079  0.3795083067701617   T   T   T
  0.5377299582360351  0.4999999998751079  0.1038049806970704   F   F   F
  0.5354315551380033  0.4999999998751079  0.3551989837255475   T   T   T
  0.9124769796643126  0.4999999998751079  0.5407795634723873   T   T   T
  0.6392538011268810  0.4999999998751079  0.5442309659106139   T   T   T
  0.1528653723653149  0.0000000000000000  0.5446825996632273   T   T   T
 
  0.00000000E+00  0.00000000E+00  0.00000000E+00
  0.00000000E+00  0.00000000E+00  0.00000000E+00
  0.00000000E+00  0.00000000E+00  0.00000000E+00
  0.00000000E+00  0.00000000E+00  0.00000000E+00
  0.00000000E+00  0.00000000E+00  0.00000000E+00
  0.00000000E+00  0.00000000E+00  0.00000000E+00
  0.00000000E+00  0.00000000E+00  0.00000000E+00
  0.00000000E+00  0.00000000E+00  0.00000000E+00
  0.00000000E+00  0.00000000E+00  0.00000000E+00
  0.00000000E+00  0.00000000E+00  0.00000000E+00
  0.00000000E+00  0.00000000E+00  0.00000000E+00
  0.00000000E+00  0.00000000E+00  0.00000000E+00
  0.00000000E+00  0.00000000E+00  0.00000000E+00
  0.00000000E+00  0.00000000E+00  0.00000000E+00
  0.00000000E+00  0.00000000E+00  0.00000000E+00
  0.00000000E+00  0.00000000E+00  0.00000000E+00
  0.00000000E+00  0.00000000E+00  0.00000000E+00
  0.00000000E+00  0.00000000E+00  0.00000000E+00
  0.00000000E+00  0.00000000E+00  0.00000000E+00
  0.00000000E+00  0.00000000E+00  0.00000000E+00
  0.00000000E+00  0.00000000E+00  0.00000000E+00
  0.00000000E+00  0.00000000E+00  0.00000000E+00
  0.00000000E+00  0.00000000E+00  0.00000000E+00
  0.00000000E+00  0.00000000E+00  0.00000000E+00
  0.00000000E+00  0.00000000E+00  0.00000000E+00
  0.00000000E+00  0.00000000E+00  0.00000000E+00
  0.00000000E+00  0.00000000E+00  0.00000000E+00
  0.00000000E+00  0.00000000E+00  0.00000000E+00
  0.00000000E+00  0.00000000E+00  0.00000000E+00
  0.00000000E+00  0.00000000E+00  0.00000000E+00
  0.00000000E+00  0.00000000E+00  0.00000000E+00
  0.00000000E+00  0.00000000E+00  0.00000000E+00
  0.00000000E+00  0.00000000E+00  0.00000000E+00
  0.00000000E+00  0.00000000E+00  0.00000000E+00
  0.00000000E+00  0.00000000E+00  0.00000000E+00
  0.00000000E+00  0.00000000E+00  0.00000000E+00
  0.00000000E+00  0.00000000E+00  0.00000000E+00
