Nickel zinc boride (3/1/2)              
   1.00000000000000     
     9.5121507644999994    0.0000000000000000    0.0000000000000000
     0.0000000000000000    2.8420565128000002    0.0000000000000000
    -6.6775160995000000    0.0000000000000000   32.9505610662000024
   Ni   Zn   B    H 
    26     8    16     1
Selective dynamics
Direct
  0.2219900548478719  0.4999999579881660  0.2403975204272157   F   F   F
  0.2307148323186752  0.4999999579881660  0.4947683458028607   F   F   F
  0.7844100220414916  0.4999999579881660  0.1147625039647338   F   F   F
  0.7861593386968551  0.4999999579881660  0.3663375482969329   F   F   F
  0.7219900298009634  0.0000000000000000  0.2403975204272157   F   F   F
  0.7307148072717666  0.0000000000000000  0.4947683458028607   F   F   F
  0.2844100345780873  0.0000000000000000  0.1147625039647338   F   F   F
  0.2861594138901538  0.0000000000000000  0.3663375482969329   F   F   F
  0.4999999498273269  0.4999999579881660  0.0000000000000000   F   F   F
  0.5063167393468007  0.4999999579881660  0.5004200216764829   F   F   F
  0.4987794567075738  0.4999999579881660  0.2505034017908443   F   F   F
  0.5063999610079790  0.4999999579881660  0.1051600064726799   F   F   F
  0.5100795118161585  0.4999999579881660  0.3578007021887615   F   F   F
  0.0000000000000000  0.0000000000000000  0.0000000000000000   F   F   F
  0.0063167393730836  0.0000000000000000  0.5004200216764829   F   F   F
  0.9987794566812980  0.0000000000000000  0.2505034017908443   F   F   F
  0.0063999735445748  0.0000000000000000  0.1051600064726799   F   F   F
  0.0100795368630671  0.0000000000000000  0.3578007021887615   F   F   F
  0.6421399887681858  0.4999999579881660  0.1783425262226572   F   F   F
  0.6439122574768064  0.4999999579881660  0.4322452198123514   F   F   F
  0.3642600128490372  0.4999999579881660  0.1768174981692923   F   F   F
  0.3648709239751042  0.4999999579881660  0.4288704568826205   F   F   F
  0.1421398634810629  0.0000000000000000  0.1783425262226572   F   F   F
  0.1439121697206289  0.0000000000000000  0.4322452198123514   F   F   F
  0.8642599627814960  0.0000000000000000  0.1768174981692923   F   F   F
  0.8648709239488284  0.0000000000000000  0.4288704568826205   F   F   F
  0.1416500543789141  0.4999999579881660  0.0589150170796771   F   F   F
  0.1412742392447512  0.4999999579881660  0.3100425186531766   F   F   F
  0.8647499291719924  0.4999999579881660  0.0462449857511871   F   F   F
  0.8651801267648693  0.4999999579881660  0.2975360816255304   F   F   F
  0.6416500293319984  0.0000000000000000  0.0589150170796771   F   F   F
  0.6412742015823980  0.0000000000000000  0.3100425186531766   F   F   F
  0.3647500043652911  0.0000000000000000  0.0462449857511871   F   F   F
  0.3651800766447622  0.0000000000000000  0.2975360816255304   F   F   F
  0.1581999814682220  0.4999999579881660  0.1313550112941684   F   F   F
  0.1611547665055326  0.4999999579881660  0.3845154289647752   F   F   F
  0.8482000477492093  0.4999999579881660  0.2238049986518931   F   F   F
  0.8539792472156762  0.4999999579881660  0.4789939150441356   F   F   F
  0.6581999438058688  0.0000000000000000  0.1313550112941684   F   F   F
  0.6611548792823427  0.0000000000000000  0.3845154289647752   F   F   F
  0.3481999599930319  0.0000000000000000  0.2238049986518931   F   F   F
  0.3539792722625918  0.0000000000000000  0.4789939150441356   F   F   F
  0.0177000091358082  0.4999999579881660  0.2055549930513223   F   F   F
  0.0239897970433418  0.4999999579881660  0.4593444777341205   F   F   F
  0.9886999244848909  0.4999999579881660  0.1496049879422756   F   F   F
  0.9891668038590566  0.4999999579881660  0.4025831831011644   F   F   F
  0.5176998964115640  0.0000000000000000  0.2055549930513223   F   F   F
  0.5239896717036530  0.0000000000000000  0.4593444777341205   F   F   F
  0.4887000246988151  0.0000000000000000  0.1496049879422756   F   F   F
  0.4891669793451356  0.0000000000000000  0.4025831831011644   F   F   F
  0.2352546144303602  0.4999999579881660  0.5392261169446446   F   F   T
 
  0.00000000E+00  0.00000000E+00  0.00000000E+00
  0.00000000E+00  0.00000000E+00  0.00000000E+00
  0.00000000E+00  0.00000000E+00  0.00000000E+00
  0.00000000E+00  0.00000000E+00  0.00000000E+00
  0.00000000E+00  0.00000000E+00  0.00000000E+00
  0.00000000E+00  0.00000000E+00  0.00000000E+00
  0.00000000E+00  0.00000000E+00  0.00000000E+00
  0.00000000E+00  0.00000000E+00  0.00000000E+00
  0.00000000E+00  0.00000000E+00  0.00000000E+00
  0.00000000E+00  0.00000000E+00  0.00000000E+00
  0.00000000E+00  0.00000000E+00  0.00000000E+00
  0.00000000E+00  0.00000000E+00  0.00000000E+00
  0.00000000E+00  0.00000000E+00  0.00000000E+00
  0.00000000E+00  0.00000000E+00  0.00000000E+00
  0.00000000E+00  0.00000000E+00  0.00000000E+00
  0.00000000E+00  0.00000000E+00  0.00000000E+00
  0.00000000E+00  0.00000000E+00  0.00000000E+00
  0.00000000E+00  0.00000000E+00  0.00000000E+00
  0.00000000E+00  0.00000000E+00  0.00000000E+00
  0.00000000E+00  0.00000000E+00  0.00000000E+00
  0.00000000E+00  0.00000000E+00  0.00000000E+00
  0.00000000E+00  0.00000000E+00  0.00000000E+00
  0.00000000E+00  0.00000000E+00  0.00000000E+00
  0.00000000E+00  0.00000000E+00  0.00000000E+00
  0.00000000E+00  0.00000000E+00  0.00000000E+00
  0.00000000E+00  0.00000000E+00  0.00000000E+00
  0.00000000E+00  0.00000000E+00  0.00000000E+00
  0.00000000E+00  0.00000000E+00  0.00000000E+00
  0.00000000E+00  0.00000000E+00  0.00000000E+00
  0.00000000E+00  0.00000000E+00  0.00000000E+00
  0.00000000E+00  0.00000000E+00  0.00000000E+00
  0.00000000E+00  0.00000000E+00  0.00000000E+00
  0.00000000E+00  0.00000000E+00  0.00000000E+00
  0.00000000E+00  0.00000000E+00  0.00000000E+00
  0.00000000E+00  0.00000000E+00  0.00000000E+00
  0.00000000E+00  0.00000000E+00  0.00000000E+00
  0.00000000E+00  0.00000000E+00  0.00000000E+00
  0.00000000E+00  0.00000000E+00  0.00000000E+00
  0.00000000E+00  0.00000000E+00  0.00000000E+00
  0.00000000E+00  0.00000000E+00  0.00000000E+00
  0.00000000E+00  0.00000000E+00  0.00000000E+00
  0.00000000E+00  0.00000000E+00  0.00000000E+00
  0.00000000E+00  0.00000000E+00  0.00000000E+00
  0.00000000E+00  0.00000000E+00  0.00000000E+00
  0.00000000E+00  0.00000000E+00  0.00000000E+00
  0.00000000E+00  0.00000000E+00  0.00000000E+00
  0.00000000E+00  0.00000000E+00  0.00000000E+00
  0.00000000E+00  0.00000000E+00  0.00000000E+00
  0.00000000E+00  0.00000000E+00  0.00000000E+00
  0.00000000E+00  0.00000000E+00  0.00000000E+00
  0.00000000E+00  0.00000000E+00  0.00000000E+00
