Nickel zinc boride (3/1/2)              
   1.00000000000000     
     9.5155229567999999    0.0000000000000000    0.0000000000000000
     0.0000000000000000    2.8443119526000000    0.0000000000000000
    -6.7200700749999998    0.0000000000000000   33.1553294495000017
   Ni   Zn   B    H 
    24    10    16     1
Selective dynamics
Direct
  0.0803400045012665  0.0000000000000000  0.1814825197609622   F   F   F
  0.0789492954106521  0.0000000000000000  0.4319127494966253   F   F   F
  0.6427599845101497  0.0000000000000000  0.0558475212505485   F   F   F
  0.6439849883486488  0.0000000000000000  0.3061254932622290   F   F   F
  0.5803400483874483  0.4999999580566410  0.1814825197609622   F   F   F
  0.5800221212506500  0.4999999580566410  0.4341900683546669   F   F   F
  0.1427599970580715  0.4999999580566410  0.0558475212505485   F   F   F
  0.1445406040033319  0.4999999580566410  0.3064082992592105   F   F   F
  0.3583500563273105  0.0000000000000000  0.1910850229568624   F   F   F
  0.3553333237745449  0.0000000000000000  0.4430516008708096   F   F   F
  0.3647500291919030  0.0000000000000000  0.0462450216739754   F   F   F
  0.3676544762616842  0.0000000000000000  0.2973583636385371   F   F   F
  0.8583500563903641  0.4999999580566410  0.1910850229568624   F   F   F
  0.8581794465465009  0.4999999580566410  0.4428174632787858   F   F   F
  0.8647500793835761  0.4999999580566410  0.0462450216739754   F   F   F
  0.8669423768329096  0.4999999580566410  0.2968641434853367   F   F   F
  0.5004899892439099  0.0000000000000000  0.1194275155380708   F   F   F
  0.5003989425909410  0.0000000000000000  0.3710154319756143   F   F   F
  0.2226100661727486  0.0000000000000000  0.1179025218842753   F   F   F
  0.2246913272347868  0.0000000000000000  0.3692551429973676   F   F   F
  0.0004899328518420  0.4999999580566410  0.1194275155380708   F   F   F
  0.0005707568511326  0.4999999580566410  0.3696816243273631   F   F   F
  0.7226100912475673  0.4999999580566410  0.1179025218842753   F   F   F
  0.7219759651079869  0.4999999580566410  0.3686041887357661   F   F   F
  0.0000000000000000  0.0000000000000000  0.0000000000000000   F   F   F
  0.0114579504051378  0.0000000000000000  0.5016069959832876   F   F   F
  0.0000330826704626  0.0000000000000000  0.2502341466893512   F   F   F
  0.7231000754640107  0.0000000000000000  0.2373300302440100   F   F   F
  0.7341301922272052  0.0000000000000000  0.4883942723496020   F   F   F
  0.4999999499344412  0.4999999580566410  0.0000000000000000   F   F   F
  0.5061429311059484  0.4999999580566410  0.5018349205771813   F   F   F
  0.4997011635204203  0.4999999580566410  0.2502418554047949   F   F   F
  0.2230999877547006  0.4999999580566410  0.2373300302440100   F   F   F
  0.2265001725525480  0.4999999580566410  0.4898989659185844   F   F   F
  0.0165499456969869  0.0000000000000000  0.0724399915150329   F   F   F
  0.0176142502008361  0.0000000000000000  0.3232039608088257   F   F   F
  0.7065499742903825  0.0000000000000000  0.1648900315204784   F   F   F
  0.7050760420312869  0.0000000000000000  0.4147385271482307   F   F   F
  0.5165500960407954  0.4999999580566410  0.0724399915150329   F   F   F
  0.5179955741527493  0.4999999580566410  0.3234933249369902   F   F   F
  0.2065500369669167  0.4999999580566410  0.1648900315204784   F   F   F
  0.2049324513448312  0.4999999580566410  0.4152165532834928   F   F   F
  0.8760501060630475  0.0000000000000000  0.1466400274925732   F   F   F
  0.8760741421161171  0.0000000000000000  0.3974137836895721   F   F   F
  0.8470499694006790  0.0000000000000000  0.0906900027212743   F   F   F
  0.8468644636166118  0.0000000000000000  0.3414631548826534   F   F   F
  0.3760500058478513  0.4999999580566410  0.1466400274925732   F   F   F
  0.3767858003004392  0.4999999580566410  0.3980577195923161   F   F   F
  0.3470500194662449  0.4999999580566410  0.0906900027212743   F   F   F
  0.3477240269989110  0.4999999580566410  0.3416952214652440   F   F   F
  0.5428173075030358  0.4999999580566410  0.5487676566964197   F   F   T
 
  0.00000000E+00  0.00000000E+00  0.00000000E+00
  0.00000000E+00  0.00000000E+00  0.00000000E+00
  0.00000000E+00  0.00000000E+00  0.00000000E+00
  0.00000000E+00  0.00000000E+00  0.00000000E+00
  0.00000000E+00  0.00000000E+00  0.00000000E+00
  0.00000000E+00  0.00000000E+00  0.00000000E+00
  0.00000000E+00  0.00000000E+00  0.00000000E+00
  0.00000000E+00  0.00000000E+00  0.00000000E+00
  0.00000000E+00  0.00000000E+00  0.00000000E+00
  0.00000000E+00  0.00000000E+00  0.00000000E+00
  0.00000000E+00  0.00000000E+00  0.00000000E+00
  0.00000000E+00  0.00000000E+00  0.00000000E+00
  0.00000000E+00  0.00000000E+00  0.00000000E+00
  0.00000000E+00  0.00000000E+00  0.00000000E+00
  0.00000000E+00  0.00000000E+00  0.00000000E+00
  0.00000000E+00  0.00000000E+00  0.00000000E+00
  0.00000000E+00  0.00000000E+00  0.00000000E+00
  0.00000000E+00  0.00000000E+00  0.00000000E+00
  0.00000000E+00  0.00000000E+00  0.00000000E+00
  0.00000000E+00  0.00000000E+00  0.00000000E+00
  0.00000000E+00  0.00000000E+00  0.00000000E+00
  0.00000000E+00  0.00000000E+00  0.00000000E+00
  0.00000000E+00  0.00000000E+00  0.00000000E+00
  0.00000000E+00  0.00000000E+00  0.00000000E+00
  0.00000000E+00  0.00000000E+00  0.00000000E+00
  0.00000000E+00  0.00000000E+00  0.00000000E+00
  0.00000000E+00  0.00000000E+00  0.00000000E+00
  0.00000000E+00  0.00000000E+00  0.00000000E+00
  0.00000000E+00  0.00000000E+00  0.00000000E+00
  0.00000000E+00  0.00000000E+00  0.00000000E+00
  0.00000000E+00  0.00000000E+00  0.00000000E+00
  0.00000000E+00  0.00000000E+00  0.00000000E+00
  0.00000000E+00  0.00000000E+00  0.00000000E+00
  0.00000000E+00  0.00000000E+00  0.00000000E+00
  0.00000000E+00  0.00000000E+00  0.00000000E+00
  0.00000000E+00  0.00000000E+00  0.00000000E+00
  0.00000000E+00  0.00000000E+00  0.00000000E+00
  0.00000000E+00  0.00000000E+00  0.00000000E+00
  0.00000000E+00  0.00000000E+00  0.00000000E+00
  0.00000000E+00  0.00000000E+00  0.00000000E+00
  0.00000000E+00  0.00000000E+00  0.00000000E+00
  0.00000000E+00  0.00000000E+00  0.00000000E+00
  0.00000000E+00  0.00000000E+00  0.00000000E+00
  0.00000000E+00  0.00000000E+00  0.00000000E+00
  0.00000000E+00  0.00000000E+00  0.00000000E+00
  0.00000000E+00  0.00000000E+00  0.00000000E+00
  0.00000000E+00  0.00000000E+00  0.00000000E+00
  0.00000000E+00  0.00000000E+00  0.00000000E+00
  0.00000000E+00  0.00000000E+00  0.00000000E+00
  0.00000000E+00  0.00000000E+00  0.00000000E+00
  0.00000000E+00  0.00000000E+00  0.00000000E+00
