Nickel zinc boride (2/1/1)
1.0
        9.5296001434         0.0000000000         0.0000000000
        0.0000000000         2.8371000290         0.0000000000
       -1.2591798252         0.0000000000        23.9625389592
   Ni   Zn    B
   16   10    8
Selective dynamics
Cartesian
    5.413636    0.000000    3.988565 F F F
    5.098841    0.000000    9.979200 T T T
    6.315637    0.000000    1.603334 F F F
    6.000842    0.000000    7.593968 T T T
    0.648835    1.418550    3.988565 F F F
    0.334040    1.418550    9.979200 T T T
    1.550837    1.418550    1.603334 F F F
    1.236042    1.418550    7.593968 T T T
    7.998331    0.000000    3.774939 F F F
    7.683536    0.000000    9.765574 T T T
    3.730943    0.000000    1.816960 F F F
    3.416148    0.000000    7.807595 T T T
    3.233530    1.418550    3.774939 F F F
    2.918735    1.418550    9.765574 T T T
    8.495743    1.418550    1.816960 F F F
    8.180947    1.418550    7.807595 T T T
    2.199673    0.000000    5.591898 F F F
    1.884878    0.000000   11.582533 T T T
    0.000000    0.000000    0.000000 F F F
   -0.629590    0.000000   11.981270 T T T
   -0.314795    0.000000    5.990635 F F F
    6.964473    1.418550    5.591898 F F F
    6.649678    1.418550   11.582533 T T T
    4.764800    1.418550    0.000000 F F F
    4.135210    1.418550   11.981270 T T T
    4.450005    1.418550    5.990635 F F F
    1.970830    0.000000    3.104467 F F F
    1.656035    0.000000    9.095101 T T T
    0.228843    0.000000    2.487431 F F F
   -0.085952    0.000000    8.478066 T T T
    6.735631    1.418550    3.104467 F F F
    6.420835    1.418550    9.095101 T T T
    4.993642    1.418550    2.487431 F F F
    4.678847    1.418550    8.478066 T T T
	