Nickel zinc boride (2/1/1)              
1.0
        9.6153869629         0.0000000000         0.0000000000
        0.0000000000         2.6911370754         0.0000000000
       -0.6873669956         0.0000000000        24.2555403230
   Ni   Zn    B    H
   16    8    8    2
Selective dynamics
Cartesian
     4.381655693         0.000000000         1.207198739   F   F   F
     4.279942036         0.000000000         7.307693958   T   T   T
     5.061889172         0.000000000         4.856686592   F   F   F
     4.872274876         0.000000000        11.071965218   T   T   T
     9.189348221         1.345568538         1.207198739   F   F   F
     9.087634087         1.345568538         7.307693958   T   T   T
     0.254195869         1.345568538         4.856686592   F   F   F
     0.064581931         1.345568538        11.071965218   T   T   T
     6.984420776         0.000000000         0.990960598   F   F   F
     6.857949257         0.000000000         7.137959480   T   T   T
     2.459125280         0.000000000         5.072926044   F   F   F
     2.254083872         0.000000000        11.271286011   T   T   T
     2.176726341         1.345568538         0.990960598   F   F   F
     2.050254583         1.345568538         7.137959480   T   T   T
     7.266818523         1.345568538         5.072926044   F   F   F
     7.061777592         1.345568538        11.271286011   T   T   T
     1.177778602         0.000000000         2.830136299   F   F   F
     1.005917907         0.000000000         9.032753944   T   T   T
     8.265766144         0.000000000         3.233749151   F   F   F
     8.101796150         0.000000000         9.306921959   T   T   T
     5.985471725         1.345568538         2.830136299   F   F   F
     5.813610077         1.345568538         9.032753944   T   T   T
     3.458073139         1.345568538         3.233749151   F   F   F
     3.294101477         1.345568538         9.306921959   T   T   T
     0.886342824         0.000000000         0.312290400   F   F   F
     0.749337792         0.000000000         6.365545750   T   T   T
     8.557202339         0.000000000         5.751595020   F   F   F
     8.399270058         0.000000000        11.586573601   T   T   T
     5.694036484         1.345568538         0.312290400   F   F   F
     5.557031631         1.345568538         6.365545750   T   T   T
     3.749508619         1.345568538         5.751595020   F   F   F
     3.591577291         1.345568538        11.586573601   T   T   T
	 3.591577291         1.345568538        12.886573601   T   T   T
	 8.399270058         0.000000000        12.886573601   T   T   T
	 
	 
