Nickel zinc boride (2/1/1)              
   1.00000000000000     
     9.6188505566667217    0.0000000000000000   -0.0472367286322632
     0.0000000000000000    2.7006287880257718    0.0000000000000000
    -0.8076338904788496    0.0000000000000000   23.8047656068309728
   Ni   Zn   B    H 
    16     8     8     1
Selective dynamics
Direct
  0.4592499479736958  0.0000000000000000  0.0497700204952878   F   F   F
  0.4688599871037174  0.0000000000000000  0.3038019048638763   T   T   T
  0.5407500164678467  0.0000000000000000  0.2002299898219420   F   F   F
  0.5481215242984128  0.0000000000000000  0.4735118945456969   T   T   T
  0.9592498488149204  0.5000000001114770  0.0497700204952878   F   F   F
  0.9671968115016677  0.5000000001114770  0.3024155319065558   T   T   T
  0.0407500350266474  0.5000000001114770  0.2002299898219420   F   F   F
  0.0499309170152293  0.5000000001114770  0.4591172376010143   T   T   T
  0.7293001514944564  0.0000000000000000  0.0408550205356732   F   F   F
  0.7341310942959456  0.0000000000000000  0.2962653517313285   T   T   T
  0.2706999406748523  0.0000000000000000  0.2091450438310645   F   F   F
  0.2739648032983417  0.0000000000000000  0.4692559634271432   T   T   T
  0.2293000523252786  0.5000000001114770  0.0408550205356732   F   F   F
  0.2360846048781247  0.5000000001114770  0.2952734139745479   T   T   T
  0.7706999158760581  0.5000000001114770  0.2091450438310645   F   F   F
  0.7832040453140214  0.5000000001114770  0.4742500079218921   T   T   T
  0.1308299482658555  0.0000000000000000  0.1166799939853860   F   F   F
  0.1342637133084809  0.0000000000000000  0.3737491460069175   T   T   T
  0.8691700041504191  0.0000000000000000  0.1333200212379353   F   F   F
  0.8726983655845151  0.0000000000000000  0.3877470208714682   T   T   T
  0.6308299109870603  0.5000000001114770  0.1166799939853860   F   F   F
  0.6352734367438149  0.5000000001114770  0.3778088944093543   T   T   T
  0.3691700537012039  0.5000000001114770  0.1333200212379353   F   F   F
  0.3742088781014098  0.5000000001114770  0.3885639142423470   T   T   T
  0.0931000163117375  0.0000000000000000  0.0128750131244786   F   F   F
  0.0973799697642577  0.0000000000000000  0.2638556212519566   T   T   T
  0.9068999793841002  0.0000000000000000  0.2371250008620152   F   F   F
  0.9248111060132663  0.0000000000000000  0.4832214288352937   T   T   T
  0.5931000348809334  0.5000000001114770  0.0128750131244786   F   F   F
  0.5969071732518743  0.5000000001114770  0.2639106657262530   T   T   T
  0.4068999545749108  0.5000000001114770  0.2371250008620152   F   F   F
  0.4068462261432412  0.5000000001114770  0.4863656067323909   T   T   T
  0.6335728331181120  0.5000000001114770  0.5060830602181831   T   T   T
 
  0.00000000E+00  0.00000000E+00  0.00000000E+00
  0.00000000E+00  0.00000000E+00  0.00000000E+00
  0.00000000E+00  0.00000000E+00  0.00000000E+00
  0.00000000E+00  0.00000000E+00  0.00000000E+00
  0.00000000E+00  0.00000000E+00  0.00000000E+00
  0.00000000E+00  0.00000000E+00  0.00000000E+00
  0.00000000E+00  0.00000000E+00  0.00000000E+00
  0.00000000E+00  0.00000000E+00  0.00000000E+00
  0.00000000E+00  0.00000000E+00  0.00000000E+00
  0.00000000E+00  0.00000000E+00  0.00000000E+00
  0.00000000E+00  0.00000000E+00  0.00000000E+00
  0.00000000E+00  0.00000000E+00  0.00000000E+00
  0.00000000E+00  0.00000000E+00  0.00000000E+00
  0.00000000E+00  0.00000000E+00  0.00000000E+00
  0.00000000E+00  0.00000000E+00  0.00000000E+00
  0.00000000E+00  0.00000000E+00  0.00000000E+00
  0.00000000E+00  0.00000000E+00  0.00000000E+00
  0.00000000E+00  0.00000000E+00  0.00000000E+00
  0.00000000E+00  0.00000000E+00  0.00000000E+00
  0.00000000E+00  0.00000000E+00  0.00000000E+00
  0.00000000E+00  0.00000000E+00  0.00000000E+00
  0.00000000E+00  0.00000000E+00  0.00000000E+00
  0.00000000E+00  0.00000000E+00  0.00000000E+00
  0.00000000E+00  0.00000000E+00  0.00000000E+00
  0.00000000E+00  0.00000000E+00  0.00000000E+00
  0.00000000E+00  0.00000000E+00  0.00000000E+00
  0.00000000E+00  0.00000000E+00  0.00000000E+00
  0.00000000E+00  0.00000000E+00  0.00000000E+00
  0.00000000E+00  0.00000000E+00  0.00000000E+00
  0.00000000E+00  0.00000000E+00  0.00000000E+00
  0.00000000E+00  0.00000000E+00  0.00000000E+00
  0.00000000E+00  0.00000000E+00  0.00000000E+00
  0.00000000E+00  0.00000000E+00  0.00000000E+00
