Nickel zinc boride (2/1/1)              
1.0
        9.5705776215         0.0000000000         0.0000000000
        0.0000000000         2.7548873425         0.0000000000
       -0.6727456936         0.0000000000        23.9253446581
   Ni   Zn    B    H
   16    8    8    1
Selective dynamics
Cartesian
     4.361804485         0.000000000         1.190764904 F F F 
     4.211696625         0.000000000         7.193491459 F F F 
     5.040586472         0.000000000         4.790571213 F F F 
     4.748794556         0.000000000        10.939838409 F F F 
     9.147092819         1.377443671         1.190764904 F F F 
     8.996984482         1.377443671         7.193491459 F F F 
     0.255297482         1.377443671         4.790571213 F F F 
    -0.036493808         1.377443671        10.939838409 F F F 
     6.952338696         0.000000000         0.977470458 F F F 
     6.784378529         0.000000000         7.034491062 F F F 
     2.450053215         0.000000000         5.003867149 F F F 
     2.126166582         0.000000000        11.396477699 F F F 
     2.167048931         1.377443671         0.977470458 F F F 
     1.999088883         1.377443671         7.034491062 F F F 
     7.235342026         1.377443671         5.003867149 F F F 
     6.911455154         1.377443671        11.396477699 F F F 
     1.173622131         0.000000000         2.791609049 F F F 
     0.940040827         0.000000000         8.894349098 F F F 
     8.228769302         0.000000000         3.189727306 F F F 
     7.983385563         0.000000000         9.196668625 F F F 
     5.958910942         1.377443671         2.791609049 F F F 
     5.725327969         1.377443671         8.894349098 F F F 
     3.443480015         1.377443671         3.189727306 F F F 
     3.198096037         1.377443671         9.196668625 F F F 
     0.882359326         0.000000000         0.308039129 F F F 
     0.723417521         0.000000000         6.293958664 F F F 
     8.520031929         0.000000000         5.673297405 F F F 
     8.271295547         0.000000000        11.416367531 F F F 
     5.667647839         1.377443671         0.308039129 F F F 
     5.508707047         1.377443671         6.293958664 F F F 
     3.734742641         1.377443671         5.673297405 F F F 
     3.486006975         1.377443671        11.416367531 F F F 
     8.306613922         1.377443671        12.290534019 F F T
     
