Nickel zinc boride (3/1/2)              
   1.00000000000000     
     9.5121507644999994    0.0000000000000000    0.0000000000000000
     0.0000000000000000    2.8420565128000002    0.0000000000000000
    -6.6775160995000000    0.0000000000000000   32.9505610662000024
   Ni   Zn   B    H 
    26     8    16     2
Selective dynamics
Direct
  0.2219900548478719  0.4999999579881660  0.2403975204272157   F   F   F
  0.2165917499622609  0.4999999579881660  0.4950344520152510   T   T   T
  0.7844100220414916  0.4999999579881660  0.1147625039647338   F   F   F
  0.7870632046384562  0.4999999579881660  0.3664601110801498   T   T   T
  0.7219900298009634  0.0000000000000000  0.2403975204272157   F   F   F
  0.7202646317086975  0.0000000000000000  0.5009328918124453   T   T   T
  0.2844100345780873  0.0000000000000000  0.1147625039647338   F   F   F
  0.2903740649476432  0.0000000000000000  0.3682848372932037   T   T   T
  0.4999999498273269  0.4999999579881660  0.0000000000000000   F   F   F
  0.4970617368285362  0.4999999579881660  0.5057392152300552   T   T   T
  0.4986953367206118  0.4999999579881660  0.2506266236689700   T   T   T
  0.5063999610079790  0.4999999579881660  0.1051600064726799   F   F   F
  0.5141564163273572  0.4999999579881660  0.3599418286655176   T   T   T
  0.0000000000000000  0.0000000000000000  0.0000000000000000   F   F   F
 -0.0039267704854264  0.0000000000000000  0.5016762380271764   T   T   T
 -0.0005286352181062  0.0000000000000000  0.2505313889360936   T   T   T
  0.0063999735445748  0.0000000000000000  0.1051600064726799   F   F   F
  0.0133002512747212  0.0000000000000000  0.3575980970300084   T   T   T
  0.6421399887681858  0.4999999579881660  0.1783425262226572   F   F   F
  0.6419955542974797  0.4999999579881660  0.4359822294549836   T   T   T
  0.3642600128490372  0.4999999579881660  0.1768174981692923   F   F   F
  0.3656749851520905  0.4999999579881660  0.4319257283877975   T   T   T
  0.1421398634810629  0.0000000000000000  0.1783425262226572   F   F   F
  0.1394052475396644  0.0000000000000000  0.4317311728814782   T   T   T
  0.8642599627814960  0.0000000000000000  0.1768174981692923   F   F   F
  0.8589761533005170  0.0000000000000000  0.4290179191672466   T   T   T
  0.1416500543789141  0.4999999579881660  0.0589150170796771   F   F   F
  0.1468770668129483  0.4999999579881660  0.3105347974616376   T   T   T
  0.8647499291719924  0.4999999579881660  0.0462449857511871   F   F   F
  0.8690524915337354  0.4999999579881660  0.2976159095217222   T   T   T
  0.6416500293319984  0.0000000000000000  0.0589150170796771   F   F   F
  0.6443834629949342  0.0000000000000000  0.3104038934147180   T   T   T
  0.3647500043652911  0.0000000000000000  0.0462449857511871   F   F   F
  0.3689923933841053  0.0000000000000000  0.2983340305011361   T   T   T
  0.1581999814682220  0.4999999579881660  0.1313550112941684   F   F   F
  0.1632345033173662  0.4999999579881660  0.3851542346452756   T   T   T
  0.8482000477492093  0.4999999579881660  0.2238049986518931   F   F   F
  0.8428579629896408  0.4999999579881660  0.4794767832083886   T   T   T
  0.6581999438058688  0.0000000000000000  0.1313550112941684   F   F   F
  0.6627532032332795  0.0000000000000000  0.3860725304034266   T   T   T
  0.3481999599930319  0.0000000000000000  0.2238049986518931   F   F   F
  0.3456548703179027  0.0000000000000000  0.4813224450944783   T   T   T
  0.0177000091358082  0.4999999579881660  0.2055549930513223   F   F   F
  0.0137280512430695  0.4999999579881660  0.4589294962005719   T   T   T
  0.9886999244848909  0.4999999579881660  0.1496049879422756   F   F   F
  0.9875863582139739  0.4999999579881660  0.4022606679033658   T   T   T
  0.5176998964115640  0.0000000000000000  0.2055549930513223   F   F   F
  0.5207739935068555  0.0000000000000000  0.4627224147593362   T   T   T
  0.4887000246988151  0.0000000000000000  0.1496049879422756   F   F   F
  0.4908611241565060  0.0000000000000000  0.4051988282364294   T   T   T
  0.2127903193820023  0.4999999579881660  0.5382989376390782   T   T   T
  0.6765347749159956  0.4999999579881660  0.5280010697575269   T   T   T
 
  0.00000000E+00  0.00000000E+00  0.00000000E+00
  0.00000000E+00  0.00000000E+00  0.00000000E+00
  0.00000000E+00  0.00000000E+00  0.00000000E+00
  0.00000000E+00  0.00000000E+00  0.00000000E+00
  0.00000000E+00  0.00000000E+00  0.00000000E+00
  0.00000000E+00  0.00000000E+00  0.00000000E+00
  0.00000000E+00  0.00000000E+00  0.00000000E+00
  0.00000000E+00  0.00000000E+00  0.00000000E+00
  0.00000000E+00  0.00000000E+00  0.00000000E+00
  0.00000000E+00  0.00000000E+00  0.00000000E+00
  0.00000000E+00  0.00000000E+00  0.00000000E+00
  0.00000000E+00  0.00000000E+00  0.00000000E+00
  0.00000000E+00  0.00000000E+00  0.00000000E+00
  0.00000000E+00  0.00000000E+00  0.00000000E+00
  0.00000000E+00  0.00000000E+00  0.00000000E+00
  0.00000000E+00  0.00000000E+00  0.00000000E+00
  0.00000000E+00  0.00000000E+00  0.00000000E+00
  0.00000000E+00  0.00000000E+00  0.00000000E+00
  0.00000000E+00  0.00000000E+00  0.00000000E+00
  0.00000000E+00  0.00000000E+00  0.00000000E+00
  0.00000000E+00  0.00000000E+00  0.00000000E+00
  0.00000000E+00  0.00000000E+00  0.00000000E+00
  0.00000000E+00  0.00000000E+00  0.00000000E+00
  0.00000000E+00  0.00000000E+00  0.00000000E+00
  0.00000000E+00  0.00000000E+00  0.00000000E+00
  0.00000000E+00  0.00000000E+00  0.00000000E+00
  0.00000000E+00  0.00000000E+00  0.00000000E+00
  0.00000000E+00  0.00000000E+00  0.00000000E+00
  0.00000000E+00  0.00000000E+00  0.00000000E+00
  0.00000000E+00  0.00000000E+00  0.00000000E+00
  0.00000000E+00  0.00000000E+00  0.00000000E+00
  0.00000000E+00  0.00000000E+00  0.00000000E+00
  0.00000000E+00  0.00000000E+00  0.00000000E+00
  0.00000000E+00  0.00000000E+00  0.00000000E+00
  0.00000000E+00  0.00000000E+00  0.00000000E+00
  0.00000000E+00  0.00000000E+00  0.00000000E+00
  0.00000000E+00  0.00000000E+00  0.00000000E+00
  0.00000000E+00  0.00000000E+00  0.00000000E+00
  0.00000000E+00  0.00000000E+00  0.00000000E+00
  0.00000000E+00  0.00000000E+00  0.00000000E+00
  0.00000000E+00  0.00000000E+00  0.00000000E+00
  0.00000000E+00  0.00000000E+00  0.00000000E+00
  0.00000000E+00  0.00000000E+00  0.00000000E+00
  0.00000000E+00  0.00000000E+00  0.00000000E+00
  0.00000000E+00  0.00000000E+00  0.00000000E+00
  0.00000000E+00  0.00000000E+00  0.00000000E+00
  0.00000000E+00  0.00000000E+00  0.00000000E+00
  0.00000000E+00  0.00000000E+00  0.00000000E+00
  0.00000000E+00  0.00000000E+00  0.00000000E+00
  0.00000000E+00  0.00000000E+00  0.00000000E+00
  0.00000000E+00  0.00000000E+00  0.00000000E+00
  0.00000000E+00  0.00000000E+00  0.00000000E+00
