Nickel zinc boride (2/1/1)              
   1.00000000000000     
     9.5242481231999996    0.0000000000000000    0.0000000000000000
     0.0000000000000000    2.8023560047000000    0.0000000000000000
    -1.0730181131000001    0.0000000000000000   23.9508313985000001
   Ni   Zn   B    H 
    16    10     8     1
Selective dynamics
Direct
  0.5900799977103830  0.0000000000000000  0.1664500203216193   F   F   F
  0.5920465986772925  0.0000000000000000  0.4168304018717777   F   F   F
  0.6715800251610986  0.0000000000000000  0.0669100207561186   F   F   F
  0.6691010666321304  0.0000000000000000  0.3177273700601688   F   F   F
  0.0900799101024177  0.4999999998751079  0.1664500203216193   F   F   F
  0.0920465611520243  0.4999999998751079  0.4168304018717777   F   F   F
  0.1715800001302554  0.4999999998751079  0.0669100207561186   F   F   F
  0.1691011041784023  0.4999999998751079  0.3177273700601688   F   F   F
  0.8601300515649442  0.0000000000000000  0.1575349980225056   F   F   F
  0.8611001884301217  0.0000000000000000  0.4114210861430507   F   F   F
  0.4015300436795712  0.0000000000000000  0.0758250181709244   F   F   F
  0.3995454057304570  0.0000000000000000  0.3274060319881471   F   F   F
  0.3601300515229440  0.4999999998751079  0.1575349980225056   F   F   F
  0.3611001883881286  0.4999999998751079  0.4114210861430507   F   F   F
  0.9015299685450273  0.4999999998751079  0.0758250181709244   F   F   F
  0.8995452806182200  0.4999999998751079  0.3274060319881471   F   F   F
  0.2616599666430091  0.0000000000000000  0.2333599863406022   F   F   F
  0.2574074531035819  0.0000000000000000  0.4870243677524471   F   F   F
  0.0000000000000000  0.0000000000000000  0.0000000000000000   F   F   F
  0.9950155648496946  0.0000000000000000  0.5061356163928039   F   F   F
  0.0000000007762893  0.0000000000000000  0.2499999702880871   F   F   F
  0.7616599666850021  0.4999999998751079  0.2333599863406022   F   F   F
  0.7574075157226972  0.4999999998751079  0.4870243677524471   F   F   F
  0.5000000000420002  0.4999999998751079  0.0000000000000000   F   F   F
  0.4950155147250044  0.4999999998751079  0.5061356163928039   F   F   F
  0.5000000226572823  0.4999999998751079  0.2499999702880871   F   F   F
  0.2239299720852230  0.0000000000000000  0.1295550155805572   F   F   F
  0.2249553595331477  0.0000000000000000  0.3806128208380670   F   F   F
  0.0377300332655750  0.0000000000000000  0.1038049806970704   F   F   F
  0.0361222163607451  0.0000000000000000  0.3558117386076916   F   F   F
  0.7239300596931884  0.4999999998751079  0.1295550155805572   F   F   F
  0.7249553970584159  0.4999999998751079  0.3806128208380670   F   F   F
  0.5377300082137282  0.4999999998751079  0.1038049806970704   F   F   F
  0.5361220661546611  0.4999999998751079  0.3558117386076916   F   F   F
  0.9135932197643655  0.4999999998751079  0.5429079804106557   F   F   T
 
  0.00000000E+00  0.00000000E+00  0.00000000E+00
  0.00000000E+00  0.00000000E+00  0.00000000E+00
  0.00000000E+00  0.00000000E+00  0.00000000E+00
  0.00000000E+00  0.00000000E+00  0.00000000E+00
  0.00000000E+00  0.00000000E+00  0.00000000E+00
  0.00000000E+00  0.00000000E+00  0.00000000E+00
  0.00000000E+00  0.00000000E+00  0.00000000E+00
  0.00000000E+00  0.00000000E+00  0.00000000E+00
  0.00000000E+00  0.00000000E+00  0.00000000E+00
  0.00000000E+00  0.00000000E+00  0.00000000E+00
  0.00000000E+00  0.00000000E+00  0.00000000E+00
  0.00000000E+00  0.00000000E+00  0.00000000E+00
  0.00000000E+00  0.00000000E+00  0.00000000E+00
  0.00000000E+00  0.00000000E+00  0.00000000E+00
  0.00000000E+00  0.00000000E+00  0.00000000E+00
  0.00000000E+00  0.00000000E+00  0.00000000E+00
  0.00000000E+00  0.00000000E+00  0.00000000E+00
  0.00000000E+00  0.00000000E+00  0.00000000E+00
  0.00000000E+00  0.00000000E+00  0.00000000E+00
  0.00000000E+00  0.00000000E+00  0.00000000E+00
  0.00000000E+00  0.00000000E+00  0.00000000E+00
  0.00000000E+00  0.00000000E+00  0.00000000E+00
  0.00000000E+00  0.00000000E+00  0.00000000E+00
  0.00000000E+00  0.00000000E+00  0.00000000E+00
  0.00000000E+00  0.00000000E+00  0.00000000E+00
  0.00000000E+00  0.00000000E+00  0.00000000E+00
  0.00000000E+00  0.00000000E+00  0.00000000E+00
  0.00000000E+00  0.00000000E+00  0.00000000E+00
  0.00000000E+00  0.00000000E+00  0.00000000E+00
  0.00000000E+00  0.00000000E+00  0.00000000E+00
  0.00000000E+00  0.00000000E+00  0.00000000E+00
  0.00000000E+00  0.00000000E+00  0.00000000E+00
  0.00000000E+00  0.00000000E+00  0.00000000E+00
  0.00000000E+00  0.00000000E+00  0.00000000E+00
  0.00000000E+00  0.00000000E+00  0.00000000E+00
