Nickel zinc boride (3/1/2)              
1.0
        9.5121507645         0.0000000000         0.0000000000
        0.0000000000         2.8420565128         0.0000000000
       -6.6775160995         0.0000000000        32.9505610662
   Ni   Zn    B    H
   26    8   16    1
Selective dynamics
Cartesian
     0.506344557         1.421028137         7.921233177  F   F   F
    -1.109229326         1.421028137        16.302894592  F   F   F
     6.695097923         1.421028137         3.781488895  F   F   F
     5.031841278         1.421028137        12.071027756  F   F   F
     5.262419701         0.000000000         7.921233177  F   F   F
     3.646845818         0.000000000        16.302894592  F   F   F
     1.939022660         0.000000000         3.781488895  F   F   F
     0.275766611         0.000000000        12.071027756  F   F   F
     4.756074905         1.421028137         0.000000000  F   F   F
     1.474598408         1.421028137        16.489120483  F   F   F
     3.071724892         1.421028137         8.254227638  F   F   F
     4.114745140         1.421028137         3.465081215  F   F   F
     2.462733269         1.421028137        11.789733887  F   F   F
     0.000000000         0.000000000         0.000000000  F   F   F
    -3.281476974         0.000000000        16.489120483  F   F   F
     7.827800274         0.000000000         8.254227638  F   F   F
    -0.641330123         0.000000000         3.465081215  F   F   F
    -2.293341875         0.000000000        11.789733887  F   F   F
     4.917247295         1.421028137         5.876486301  F   F   F
     3.238666058         1.421028137        14.242722511  F   F   F
     2.284194469         1.421028137         5.826235771  F   F   F
     0.606917858         1.421028137        14.131522179  F   F   F
     0.161170721         0.000000000         5.876486301  F   F   F
    -1.517410159         0.000000000        14.242722511  F   F   F
     7.040269375         0.000000000         5.826235771  F   F   F
     5.362993240         0.000000000        14.131522179  F   F   F
     0.953990698         1.421028137         1.941282868  F   F   F
    -0.726492047         1.421028137        10.216074944  F   F   F
     7.916830063         1.421028137         1.523798227  F   F   F
     6.242921829         1.421028137         9.803980827  F   F   F
     5.710065842         0.000000000         1.941282868  F   F   F
     4.029582977         0.000000000        10.216074944  F   F   F
     3.160755396         0.000000000         1.523798227  F   F   F
     1.486845970         0.000000000         9.803980827  F   F   F
     0.627696872         1.421028137         4.328221321  F   F   F
    -1.034679532         1.421028137        12.669999123  F   F   F
     6.573745251         1.421028137         7.374500275  F   F   F
     4.924689770         1.421028137        15.783118248  F   F   F
     5.383771896         0.000000000         4.328221321  F   F   F
     3.721396923         0.000000000        12.669999123  F   F   F
     1.817669034         0.000000000         7.374500275  F   F   F
     0.168614626         0.000000000        15.783118248  F   F   F
    -1.204231620         1.421028137         6.773152351  F   F   F
    -2.839085579         1.421028137        15.135658264  F   F   F
     8.405673027         1.421028137         4.929568291  F   F   F
     6.720848083         1.421028137        13.265341759  F   F   F
     3.551842690         0.000000000         6.773152351  F   F   F
     1.916988611         0.000000000        15.135658264  F   F   F
     3.649598598         0.000000000         4.929568291  F   F   F
     1.964774370         0.000000000        13.265341759  F   F   F
    -1.309229326         1.421028137        17.502894592  F   F   T
	 