Nickel zinc boride (2/1/1)              
   1.00000000000000     
     9.4984141185896220    0.0000000000000000   -0.0077347263756173
     0.0000000000000000    2.7901754577432523    0.0000000000000000
    -1.2281372915029105    0.0000000000000000   24.3924345288693125
   Ni   Zn   B    H 
    16     8     8     1
Selective dynamics
Direct
  0.2404600222198994  0.0000000000000000  0.2369525136710493   F   F   F
  0.2420966635486863  0.0000000000000000  0.4833162902598929   F   F   F
  0.3219599999337177  0.0000000000000000  0.1374125114806262   F   F   F
  0.3193526513638503  0.0000000000000000  0.3861646128848051   F   F   F
  0.7404599471650428  0.4999999999819593  0.2369525136710493   F   F   F
  0.7420965385970248  0.4999999999819593  0.4833162902598929   F   F   F
  0.8219599999337177  0.4999999999819593  0.1374125114806262   F   F   F
  0.8193525764138201  0.4999999999819593  0.3861646128848051   F   F   F
  0.5105100091633901  0.0000000000000000  0.2280375184383416   F   F   F
  0.5117482468042098  0.0000000000000000  0.4793977807205678   F   F   F
  0.0519100110863491  0.0000000000000000  0.1463275164675295   F   F   F
  0.0498232774988310  0.0000000000000000  0.3966855892607057   F   F   F
  0.0105100154529012  0.4999999999819593  0.2280375184383416   F   F   F
  0.0117482562384765  0.4999999999819593  0.4793977807205678   F   F   F
  0.5519099891778794  0.4999999999819593  0.1463275164675295   F   F   F
  0.5498232712093198  0.4999999999819593  0.3966855892607057   F   F   F
  0.9120399926941261  0.0000000000000000  0.0538624896941542   F   F   F
  0.9115741553420165  0.0000000000000000  0.3043984060551779   F   F   F
  0.6503800793248757  0.0000000000000000  0.0705025047430539   F   F   F
  0.6492213316106117  0.0000000000000000  0.3202810823284707   F   F   F
  0.4120400176425250  0.4999999999819593  0.0538624896941542   F   F   F
  0.4115740553387610  0.4999999999819593  0.3043984060551779   F   F   F
  0.1503799917958162  0.4999999999819593  0.0705025047430539   F   F   F
  0.1492212816089804  0.4999999999819593  0.3202810823284707   F   F   F
  0.8743101611740300  0.0000000000000000  0.2000575114358014   F   F   F
  0.8761752248273780  0.0000000000000000  0.4508666691394509   F   F   F
  0.6881100322050244  0.0000000000000000  0.1743074844122816   F   F   F
  0.6873285336837895  0.0000000000000000  0.4265474032847081   F   F   F
  0.3743099611675120  0.4999999999819593  0.2000575114358014   F   F   F
  0.3761751998789791  0.4999999999819593  0.4508666691394509   F   F   F
  0.1881100446792274  0.4999999999819593  0.1743074844122816   F   F   F
  0.1873285461579854  0.4999999999819593  0.4265474032847081   F   F   F
  0.3880287474831879  0.0000000000000000  0.5236960179377771   F   F   T
 
  0.00000000E+00  0.00000000E+00  0.00000000E+00
  0.00000000E+00  0.00000000E+00  0.00000000E+00
  0.00000000E+00  0.00000000E+00  0.00000000E+00
  0.00000000E+00  0.00000000E+00  0.00000000E+00
  0.00000000E+00  0.00000000E+00  0.00000000E+00
  0.00000000E+00  0.00000000E+00  0.00000000E+00
  0.00000000E+00  0.00000000E+00  0.00000000E+00
  0.00000000E+00  0.00000000E+00  0.00000000E+00
  0.00000000E+00  0.00000000E+00  0.00000000E+00
  0.00000000E+00  0.00000000E+00  0.00000000E+00
  0.00000000E+00  0.00000000E+00  0.00000000E+00
  0.00000000E+00  0.00000000E+00  0.00000000E+00
  0.00000000E+00  0.00000000E+00  0.00000000E+00
  0.00000000E+00  0.00000000E+00  0.00000000E+00
  0.00000000E+00  0.00000000E+00  0.00000000E+00
  0.00000000E+00  0.00000000E+00  0.00000000E+00
  0.00000000E+00  0.00000000E+00  0.00000000E+00
  0.00000000E+00  0.00000000E+00  0.00000000E+00
  0.00000000E+00  0.00000000E+00  0.00000000E+00
  0.00000000E+00  0.00000000E+00  0.00000000E+00
  0.00000000E+00  0.00000000E+00  0.00000000E+00
  0.00000000E+00  0.00000000E+00  0.00000000E+00
  0.00000000E+00  0.00000000E+00  0.00000000E+00
  0.00000000E+00  0.00000000E+00  0.00000000E+00
  0.00000000E+00  0.00000000E+00  0.00000000E+00
  0.00000000E+00  0.00000000E+00  0.00000000E+00
  0.00000000E+00  0.00000000E+00  0.00000000E+00
  0.00000000E+00  0.00000000E+00  0.00000000E+00
  0.00000000E+00  0.00000000E+00  0.00000000E+00
  0.00000000E+00  0.00000000E+00  0.00000000E+00
  0.00000000E+00  0.00000000E+00  0.00000000E+00
  0.00000000E+00  0.00000000E+00  0.00000000E+00
  0.00000000E+00  0.00000000E+00  0.00000000E+00
