Nickel zinc boride (3/1/2)              
   1.00000000000000     
     9.5155229567999999    0.0000000000000000    0.0000000000000000
     0.0000000000000000    2.8443119526000000    0.0000000000000000
    -6.7200700749999998    0.0000000000000000   33.1553294495000017
   Ni   Zn   B    H 
    24    10    16     1
Selective dynamics
Direct
  0.0803399943409744  0.0000000000000000  0.1814825053741345   F   F   F
  0.0789492726235070  0.0000000000000000  0.4319127073551036   T   T   T
  0.6427599819754022  0.0000000000000000  0.0558475176613840   F   F   F
  0.6439849934450416  0.0000000000000000  0.3061254843795942   T   T   T
  0.5803400883557757  0.4999999580566410  0.1814825053741345   F   F   F
  0.5800221112692653  0.4999999580566410  0.4341900710889404   T   T   T
  0.1427599945233240  0.4999999580566410  0.0558475176613840   F   F   F
  0.1445405993290212  0.4999999580566410  0.3064083003313229   T   T   T
  0.3583500461670184  0.0000000000000000  0.1910850085700346   F   F   F
  0.3553333034248030  0.0000000000000000  0.4430515663243618   T   T   T
  0.3647500266358534  0.0000000000000000  0.0462450180546483   F   F   F
  0.3676544735296661  0.0000000000000000  0.2973583717995394   T   T   T
  0.8583500462300719  0.4999999580566410  0.1910850085700346   F   F   F
  0.8581794542772090  0.4999999580566410  0.4428174610152235   T   T   T
  0.8647500768275265  0.4999999580566410  0.0462450180546483   F   F   F
  0.8669423642014745  0.4999999580566410  0.2968641226616165   T   T   T
  0.5004899841531127  0.0000000000000000  0.1194275083295793   F   F   F
  0.5003989042030854  0.0000000000000000  0.3710154306365726   T   T   T
  0.2226100611032535  0.0000000000000000  0.1179025147059392   F   F   F
  0.2246913219337080  0.0000000000000000  0.3692551255305290   T   T   T
  0.0004899277610448  0.4999999580566410  0.1194275083295793   F   F   F
  0.0005707284604243  0.4999999580566410  0.3696815970503434   T   T   T
  0.7226100861780722  0.4999999580566410  0.1179025147059392   F   F   F
  0.7219760060542220  0.4999999580566410  0.3686041716006082   T   T   T
  0.0000000000000000  0.0000000000000000  0.0000000000000000   F   F   F
  0.0114579539788559  0.0000000000000000  0.5016069728129153   T   T   T
  0.0000330645570313  0.0000000000000000  0.2502341348852999   T   T   T
  0.7231000653037185  0.0000000000000000  0.2373300158571823   F   F   F
  0.7341301653793426  0.0000000000000000  0.4883942662222406   T   T   T
  0.4999999499344412  0.4999999580566410  0.0000000000000000   F   F   F
  0.5061429173112173  0.4999999580566410  0.5018349165421437   T   T   T
  0.4997011106124974  0.4999999580566410  0.2502418572943866   T   T   T
  0.2230999775944085  0.4999999580566410  0.2373300158571823   F   F   F
  0.2265001248377718  0.4999999580566410  0.4898989183705813   T   T   T
  0.0165499456969869  0.0000000000000000  0.0724399915150329   F   F   F
  0.0176142409922929  0.0000000000000000  0.3232039599760960   T   T   T
  0.7065500142587098  0.0000000000000000  0.1648900171336507   F   F   F
  0.7050760233065646  0.0000000000000000  0.4147385138718223   T   T   T
  0.5165500459121830  0.4999999580566410  0.0724399915150329   F   F   F
  0.5179955179849273  0.4999999580566410  0.3234933126292703   T   T   T
  0.2065500393125106  0.4999999580566410  0.1648900171336507   F   F   F
  0.2049324378696912  0.4999999580566410  0.4152165417852444   T   T   T
  0.8760500959027553  0.0000000000000000  0.1466400131057455   F   F   F
  0.8760741564203947  0.0000000000000000  0.3974137460098264   T   T   T
  0.8470499694006790  0.0000000000000000  0.0906900027212743   F   F   F
  0.8468644434840799  0.0000000000000000  0.3414631585800520   T   T   T
  0.3760499956875591  0.4999999580566410  0.1466400131057455   F   F   F
  0.3767857732586888  0.4999999580566410  0.3980577000921308   T   T   T
  0.3470500194662449  0.4999999580566410  0.0906900027212743   F   F   F
  0.3477240142454456  0.4999999580566410  0.3416952114906836   T   T   T
  0.5428172994724858  0.4999999580566410  0.5487676482373538   T   T   T
 
  0.00000000E+00  0.00000000E+00  0.00000000E+00
  0.00000000E+00  0.00000000E+00  0.00000000E+00
  0.00000000E+00  0.00000000E+00  0.00000000E+00
  0.00000000E+00  0.00000000E+00  0.00000000E+00
  0.00000000E+00  0.00000000E+00  0.00000000E+00
  0.00000000E+00  0.00000000E+00  0.00000000E+00
  0.00000000E+00  0.00000000E+00  0.00000000E+00
  0.00000000E+00  0.00000000E+00  0.00000000E+00
  0.00000000E+00  0.00000000E+00  0.00000000E+00
  0.00000000E+00  0.00000000E+00  0.00000000E+00
  0.00000000E+00  0.00000000E+00  0.00000000E+00
  0.00000000E+00  0.00000000E+00  0.00000000E+00
  0.00000000E+00  0.00000000E+00  0.00000000E+00
  0.00000000E+00  0.00000000E+00  0.00000000E+00
  0.00000000E+00  0.00000000E+00  0.00000000E+00
  0.00000000E+00  0.00000000E+00  0.00000000E+00
  0.00000000E+00  0.00000000E+00  0.00000000E+00
  0.00000000E+00  0.00000000E+00  0.00000000E+00
  0.00000000E+00  0.00000000E+00  0.00000000E+00
  0.00000000E+00  0.00000000E+00  0.00000000E+00
  0.00000000E+00  0.00000000E+00  0.00000000E+00
  0.00000000E+00  0.00000000E+00  0.00000000E+00
  0.00000000E+00  0.00000000E+00  0.00000000E+00
  0.00000000E+00  0.00000000E+00  0.00000000E+00
  0.00000000E+00  0.00000000E+00  0.00000000E+00
  0.00000000E+00  0.00000000E+00  0.00000000E+00
  0.00000000E+00  0.00000000E+00  0.00000000E+00
  0.00000000E+00  0.00000000E+00  0.00000000E+00
  0.00000000E+00  0.00000000E+00  0.00000000E+00
  0.00000000E+00  0.00000000E+00  0.00000000E+00
  0.00000000E+00  0.00000000E+00  0.00000000E+00
  0.00000000E+00  0.00000000E+00  0.00000000E+00
  0.00000000E+00  0.00000000E+00  0.00000000E+00
  0.00000000E+00  0.00000000E+00  0.00000000E+00
  0.00000000E+00  0.00000000E+00  0.00000000E+00
  0.00000000E+00  0.00000000E+00  0.00000000E+00
  0.00000000E+00  0.00000000E+00  0.00000000E+00
  0.00000000E+00  0.00000000E+00  0.00000000E+00
  0.00000000E+00  0.00000000E+00  0.00000000E+00
  0.00000000E+00  0.00000000E+00  0.00000000E+00
  0.00000000E+00  0.00000000E+00  0.00000000E+00
  0.00000000E+00  0.00000000E+00  0.00000000E+00
  0.00000000E+00  0.00000000E+00  0.00000000E+00
  0.00000000E+00  0.00000000E+00  0.00000000E+00
  0.00000000E+00  0.00000000E+00  0.00000000E+00
  0.00000000E+00  0.00000000E+00  0.00000000E+00
  0.00000000E+00  0.00000000E+00  0.00000000E+00
  0.00000000E+00  0.00000000E+00  0.00000000E+00
  0.00000000E+00  0.00000000E+00  0.00000000E+00
  0.00000000E+00  0.00000000E+00  0.00000000E+00
  0.00000000E+00  0.00000000E+00  0.00000000E+00
