Nickel zinc boride (3/1/2)              
   1.00000000000000     
     9.5121507644999994    0.0000000000000000    0.0000000000000000
     0.0000000000000000    2.8420565128000002    0.0000000000000000
    -6.6775160995000000    0.0000000000000000   32.9505610662000024
   Ni   Zn   B    H 
    26     8    16     1
Selective dynamics
Direct
  0.2219900524998550  0.4999999579881660  0.2403975349034511   F   F   F
  0.2196252033420905  0.4999999579881660  0.4969476064793596   F   F   F
  0.7844100271332906  0.4999999579881660  0.1147625112180251   F   F   F
  0.7839007587463342  0.4999999579881660  0.3660586865202973   F   F   F
  0.7219900399632593  0.0000000000000000  0.2403975349034511   F   F   F
  0.7196252033158075  0.0000000000000000  0.4969476064793596   F   F   F
  0.2844100396698863  0.0000000000000000  0.1147625112180251   F   F   F
  0.2839008589602656  0.0000000000000000  0.3660586865202973   F   F   F
  0.4999999498273269  0.4999999579881660  0.0000000000000000   F   F   F
  0.4881911588459786  0.4999999579881660  0.5024222116200008   F   F   F
  0.4987063731437189  0.4999999579881660  0.2504122905349817   F   F   F
  0.5064000111543692  0.4999999579881660  0.1051600064726799   F   F   F
  0.5083434134324634  0.4999999579881660  0.3577219783699235   F   F   F
  0.0000000000000000  0.0000000000000000  0.0000000000000000   F   F   F
  0.9881911589248276  0.0000000000000000  0.5024222116200008   F   F   F
  0.9987063732225607  0.0000000000000000  0.2504122905349817   F   F   F
  0.0063999735445748  0.0000000000000000  0.1051600064726799   F   F   F
  0.0083434384793719  0.0000000000000000  0.3577219783699235   F   F   F
  0.6421399887681858  0.4999999579881660  0.1783425262226572   F   F   F
  0.6404819669089861  0.4999999579881660  0.4322583308182359   F   F   F
  0.3642600128490372  0.4999999579881660  0.1768174981692923   F   F   F
  0.3619090128139462  0.4999999579881660  0.4282558032517088   F   F   F
  0.1421398634810629  0.0000000000000000  0.1783425262226572   F   F   F
  0.1404818541321760  0.0000000000000000  0.4322583308182359   F   F   F
  0.8642599627814960  0.0000000000000000  0.1768174981692923   F   F   F
  0.8619090127876632  0.0000000000000000  0.4282558032517088   F   F   F
  0.1416500543789141  0.4999999579881660  0.0589150170796771   F   F   F
  0.1402909680089763  0.4999999579881660  0.3097723975167881   F   F   F
  0.8647499291719924  0.4999999579881660  0.0462449857511871   F   F   F
  0.8645158417717340  0.4999999579881660  0.2974136545144503   F   F   F
  0.6416500293319984  0.0000000000000000  0.0589150170796771   F   F   F
  0.6402909303466231  0.0000000000000000  0.3097723975167881   F   F   F
  0.3647500043652911  0.0000000000000000  0.0462449857511871   F   F   F
  0.3645157665258694  0.0000000000000000  0.2974136545144503   F   F   F
  0.1581999853227956  0.4999999579881660  0.1313550257704037   F   F   F
  0.1586964817691339  0.4999999579881660  0.3840369212401811   F   F   F
  0.8482000477492093  0.4999999579881660  0.2238049986518931   F   F   F
  0.8427094137940045  0.4999999579881660  0.4755152482387430   F   F   F
  0.6581999539681647  0.0000000000000000  0.1313550257704037   F   F   F
  0.6586965695253113  0.0000000000000000  0.3840369212401811   F   F   F
  0.3481999599930319  0.0000000000000000  0.2238049986518931   F   F   F
  0.3427094389460450  0.0000000000000000  0.4755152482387430   F   F   F
  0.0177000091358082  0.4999999579881660  0.2055549930513223   F   F   F
  0.0139924178894901  0.4999999579881660  0.4587646710060511   F   F   F
  0.9886999244848909  0.4999999579881660  0.1496049879422756   F   F   F
  0.9872434770457161  0.4999999579881660  0.4021437768048344   F   F   F
  0.5176998964115640  0.0000000000000000  0.2055549930513223   F   F   F
  0.5139922425085430  0.0000000000000000  0.4587646710060511   F   F   F
  0.4887000246988151  0.0000000000000000  0.1496049879422756   F   F   F
  0.4872437026781782  0.0000000000000000  0.4021437768048344   F   F   F
  0.3667776627269248  0.4999999579881660  0.5317669523618437   F   F   T
 
  0.00000000E+00  0.00000000E+00  0.00000000E+00
  0.00000000E+00  0.00000000E+00  0.00000000E+00
  0.00000000E+00  0.00000000E+00  0.00000000E+00
  0.00000000E+00  0.00000000E+00  0.00000000E+00
  0.00000000E+00  0.00000000E+00  0.00000000E+00
  0.00000000E+00  0.00000000E+00  0.00000000E+00
  0.00000000E+00  0.00000000E+00  0.00000000E+00
  0.00000000E+00  0.00000000E+00  0.00000000E+00
  0.00000000E+00  0.00000000E+00  0.00000000E+00
  0.00000000E+00  0.00000000E+00  0.00000000E+00
  0.00000000E+00  0.00000000E+00  0.00000000E+00
  0.00000000E+00  0.00000000E+00  0.00000000E+00
  0.00000000E+00  0.00000000E+00  0.00000000E+00
  0.00000000E+00  0.00000000E+00  0.00000000E+00
  0.00000000E+00  0.00000000E+00  0.00000000E+00
  0.00000000E+00  0.00000000E+00  0.00000000E+00
  0.00000000E+00  0.00000000E+00  0.00000000E+00
  0.00000000E+00  0.00000000E+00  0.00000000E+00
  0.00000000E+00  0.00000000E+00  0.00000000E+00
  0.00000000E+00  0.00000000E+00  0.00000000E+00
  0.00000000E+00  0.00000000E+00  0.00000000E+00
  0.00000000E+00  0.00000000E+00  0.00000000E+00
  0.00000000E+00  0.00000000E+00  0.00000000E+00
  0.00000000E+00  0.00000000E+00  0.00000000E+00
  0.00000000E+00  0.00000000E+00  0.00000000E+00
  0.00000000E+00  0.00000000E+00  0.00000000E+00
  0.00000000E+00  0.00000000E+00  0.00000000E+00
  0.00000000E+00  0.00000000E+00  0.00000000E+00
  0.00000000E+00  0.00000000E+00  0.00000000E+00
  0.00000000E+00  0.00000000E+00  0.00000000E+00
  0.00000000E+00  0.00000000E+00  0.00000000E+00
  0.00000000E+00  0.00000000E+00  0.00000000E+00
  0.00000000E+00  0.00000000E+00  0.00000000E+00
  0.00000000E+00  0.00000000E+00  0.00000000E+00
  0.00000000E+00  0.00000000E+00  0.00000000E+00
  0.00000000E+00  0.00000000E+00  0.00000000E+00
  0.00000000E+00  0.00000000E+00  0.00000000E+00
  0.00000000E+00  0.00000000E+00  0.00000000E+00
  0.00000000E+00  0.00000000E+00  0.00000000E+00
  0.00000000E+00  0.00000000E+00  0.00000000E+00
  0.00000000E+00  0.00000000E+00  0.00000000E+00
  0.00000000E+00  0.00000000E+00  0.00000000E+00
  0.00000000E+00  0.00000000E+00  0.00000000E+00
  0.00000000E+00  0.00000000E+00  0.00000000E+00
  0.00000000E+00  0.00000000E+00  0.00000000E+00
  0.00000000E+00  0.00000000E+00  0.00000000E+00
  0.00000000E+00  0.00000000E+00  0.00000000E+00
  0.00000000E+00  0.00000000E+00  0.00000000E+00
  0.00000000E+00  0.00000000E+00  0.00000000E+00
  0.00000000E+00  0.00000000E+00  0.00000000E+00
  0.00000000E+00  0.00000000E+00  0.00000000E+00
