Nickel zinc boride (2/1/1)              
   1.00000000000000     
     9.5242481231999996    0.0000000000000000    0.0000000000000000
     0.0000000000000000    2.8023560047000000    0.0000000000000000
    -1.0730181131000001    0.0000000000000000   23.9508313985000001
   Ni   Zn   B    H 
    16    10     8     4
Selective dynamics
Direct
  0.5900799977103830  0.0000000000000000  0.1664500203216193   F   F   F
  0.5920466008820203 -0.0000000000000000  0.4168304306443846   T   T   T
  0.6715800251610986  0.0000000000000000  0.0669100207561186   F   F   F
  0.6691010854395146 -0.0000000000000000  0.3177273937615775   T   T   T
  0.0900799101024177  0.4999999998751079  0.1664500203216193   F   F   F
  0.0920465570570372  0.4999999998751079  0.4168304306443846   T   T   T
  0.1715800001302554  0.4999999998751079  0.0669100207561186   F   F   F
  0.1691011104913615  0.4999999998751079  0.3177273937615775   T   T   T
  0.8601300526891649  0.0000000000000000  0.1575350080012825   F   F   F
  0.8611002559441189 -0.0000000000000000  0.4114210995877002   T   T   T
  0.4015300185857242  0.0000000000000000  0.0758250181709244   F   F   F
  0.3995453993584336 -0.0000000000000000  0.3274060381972119   T   T   T
  0.3601300276583217  0.4999999998751079  0.1575350080012825   F   F   F
  0.3611002058194281  0.4999999998751079  0.4114210995877002   T   T   T
  0.9015299685450273  0.4999999998751079  0.0758250181709244   F   F   F
  0.8995452992350464  0.4999999998751079  0.3274060381972119   T   T   T
  0.2616599917368490  0.0000000000000000  0.2333599863406022   F   F   F
  0.2574074572497748 -0.0000000000000000  0.4870243866206538   T   T   T
  0.0000000000000000  0.0000000000000000  0.0000000000000000   F   F   F
  0.9950155445482658 -0.0000000000000000  0.5061356383193064   T   T   T
  0.9999999998701838  0.0000000000000000  0.2499999902038894   F   F   F
  0.7616599666850021  0.4999999998751079  0.2333599863406022   F   F   F
  0.7574074572917752  0.4999999998751079  0.4870243866206538   T   T   T
  0.5000000000420002  0.4999999998751079  0.0000000000000000   F   F   F
  0.4950155446112621  0.4999999998751079  0.5061356383193064   T   T   T
  0.5000000249010341  0.4999999998751079  0.2499999902038894   F   F   F
  0.2239299720852230  0.0000000000000000  0.1295550155805572   F   F   F
  0.2249553668380475 -0.0000000000000000  0.3806128508872749   T   T   T
  0.0377300332655750  0.0000000000000000  0.1038049806970704   F   F   F
  0.0361222145299980 -0.0000000000000000  0.3558117320490928   T   T   T
  0.7239300596931884  0.4999999998751079  0.1295550155805572   F   F   F
  0.7249553918688976  0.4999999998751079  0.3806128508872749   T   T   T
  0.5377299582360351  0.4999999998751079  0.1038049806970704   F   F   F
  0.5361220581291964  0.4999999998751079  0.3558117320490928   T   T   T
  0.9135932290393783  0.4999999998751079  0.5407138732842465   T   T   T
  0.6500723854855603  0.4999999998751079  0.5437572520597137   T   T   T
  0.4135932289973778 -0.0000000000000000  0.5407138732842465   T   T   T
  0.1500723854225635 -0.0000000000000000  0.5437572520597137   T   T   T
 
  0.00000000E+00  0.00000000E+00  0.00000000E+00
  0.00000000E+00  0.00000000E+00  0.00000000E+00
  0.00000000E+00  0.00000000E+00  0.00000000E+00
  0.00000000E+00  0.00000000E+00  0.00000000E+00
  0.00000000E+00  0.00000000E+00  0.00000000E+00
  0.00000000E+00  0.00000000E+00  0.00000000E+00
  0.00000000E+00  0.00000000E+00  0.00000000E+00
  0.00000000E+00  0.00000000E+00  0.00000000E+00
  0.00000000E+00  0.00000000E+00  0.00000000E+00
  0.00000000E+00  0.00000000E+00  0.00000000E+00
  0.00000000E+00  0.00000000E+00  0.00000000E+00
  0.00000000E+00  0.00000000E+00  0.00000000E+00
  0.00000000E+00  0.00000000E+00  0.00000000E+00
  0.00000000E+00  0.00000000E+00  0.00000000E+00
  0.00000000E+00  0.00000000E+00  0.00000000E+00
  0.00000000E+00  0.00000000E+00  0.00000000E+00
  0.00000000E+00  0.00000000E+00  0.00000000E+00
  0.00000000E+00  0.00000000E+00  0.00000000E+00
  0.00000000E+00  0.00000000E+00  0.00000000E+00
  0.00000000E+00  0.00000000E+00  0.00000000E+00
  0.00000000E+00  0.00000000E+00  0.00000000E+00
  0.00000000E+00  0.00000000E+00  0.00000000E+00
  0.00000000E+00  0.00000000E+00  0.00000000E+00
  0.00000000E+00  0.00000000E+00  0.00000000E+00
  0.00000000E+00  0.00000000E+00  0.00000000E+00
  0.00000000E+00  0.00000000E+00  0.00000000E+00
  0.00000000E+00  0.00000000E+00  0.00000000E+00
  0.00000000E+00  0.00000000E+00  0.00000000E+00
  0.00000000E+00  0.00000000E+00  0.00000000E+00
  0.00000000E+00  0.00000000E+00  0.00000000E+00
  0.00000000E+00  0.00000000E+00  0.00000000E+00
  0.00000000E+00  0.00000000E+00  0.00000000E+00
  0.00000000E+00  0.00000000E+00  0.00000000E+00
  0.00000000E+00  0.00000000E+00  0.00000000E+00
  0.00000000E+00  0.00000000E+00  0.00000000E+00
  0.00000000E+00  0.00000000E+00  0.00000000E+00
  0.00000000E+00  0.00000000E+00  0.00000000E+00
  0.00000000E+00  0.00000000E+00  0.00000000E+00
