Nickel zinc boride (3/1/2)              
1.0
        9.5121507645         0.0000000000         0.0000000000
        0.0000000000         2.8420565128         0.0000000000
       -6.6775160995         0.0000000000        32.9505610662
   Ni   Zn    B    H
   26    8   16    1
Selective dynamics
Cartesian
     0.506344438         1.421028137         7.921233654 F F F
    -1.229267597         1.421028137        16.374702454 F F F
     6.695097923         1.421028137         3.781489134 F F F
     5.012219429         1.421028137        12.061839104 F F F
     5.262419701         0.000000000         7.921233654 F F F
     3.526807785         0.000000000        16.374702454 F F F
     1.939022660         0.000000000         3.781489134 F F F
     0.256145000         0.000000000        12.061839104 F F F
     4.756074905         1.421028137         0.000000000 F F F
     1.288815498         1.421028137        16.555093765 F F F
     3.071638107         1.421028137         8.251225471 F F F
     4.114745617         1.421028137         3.465081215 F F F
     2.446744919         1.421028137        11.787139893 F F F
     0.000000000         0.000000000         0.000000000 F F F
     6.044890881         0.000000000        16.555093765 F F F
     7.827713490         0.000000000         8.251225471 F F F
    -0.641330123         0.000000000         3.465081215 F F F
    -2.309330225         0.000000000        11.787139893 F F F
     4.917247295         1.421028137         5.876486301 F F F
     3.205949068         1.421028137        14.243154526 F F F
     2.284194469         1.421028137         5.826235771 F F F
     0.582848072         1.421028137        14.111268997 F F F
     0.161170721         0.000000000         5.876486301 F F F
    -1.550127387         0.000000000        14.243154526 F F F
     7.040269375         0.000000000         5.826235771 F F F
     5.338923454         0.000000000        14.111268997 F F F
     0.953990698         1.421028137         1.941282868 F F F
    -0.734041333         1.421028137        10.207174301 F F F
     7.916830063         1.421028137         1.523798227 F F F
     6.237420559         1.421028137         9.799946785 F F F
     5.710065842         0.000000000         1.941282868 F F F
     4.022033691         0.000000000        10.207174301 F F F
     3.160755396         0.000000000         1.523798227 F F F
     1.481344461         0.000000000         9.799946785 F F F
     0.627696812         1.421028137         4.328221798 F F F
    -1.054867864         1.421028137        12.654232025 F F F
     6.573745251         1.421028137         7.374500275 F F F
     4.840718269         1.421028137        15.668494225 F F F
     5.383771896         0.000000000         4.328221798 F F F
     3.701208353         0.000000000        12.654232025 F F F
     1.817669034         0.000000000         7.374500275 F F F
     0.084643126         0.000000000        15.668494225 F F F
    -1.204231620         1.421028137         6.773152351 F F F
    -2.930310488         1.421028137        15.116553307 F F F
     8.405673027         1.421028137         4.929568291 F F F
     6.705487251         1.421028137        13.250863075 F F F
     3.551842690         0.000000000         6.773152351 F F F
     1.825763226         0.000000000        15.116553307 F F F
     3.649598598         0.000000000         4.929568291 F F F
     1.949414015         0.000000000        13.250863075 F F F
     2.817975521         1.421028137        17.238973618 F F T
	 
     
