Nickel zinc boride (2/1/1)              
   1.00000000000000     
     9.6668252495508380    0.0000000000000000   -0.0206606503976037
     0.0000000000000000    2.7001050570591070    0.0000000000000000
    -0.7332631303349522    0.0000000000000000   23.8539184719466704
   Ni   Zn   B    H 
    16     8     8     3
Selective dynamics
Direct
  0.4592499479736958  0.0000000000000000  0.0497700204952878   F   F   F
  0.4567241846336749  0.0000000000000000  0.3048480226802918   T   T   T
  0.5407500164678467  0.0000000000000000  0.2002299898219420   F   F   F
  0.5406827336973281  0.0000000000000000  0.4747933094326623   T   T   T
  0.9592498488149204  0.5000000001114770  0.0497700204952878   F   F   F
  0.9611338248514191  0.5000000001114770  0.3038133382100455   T   T   T
  0.0407500350266474  0.5000000001114770  0.2002299898219420   F   F   F
  0.0257155678388671  0.5000000001114770  0.4619162330053680   T   T   T
  0.7293001514944564  0.0000000000000000  0.0408550205356732   F   F   F
  0.7266521485678255  0.0000000000000000  0.2942569001569065   T   T   T
  0.2706999406748523  0.0000000000000000  0.2091450438310645   F   F   F
  0.2537403801762139  0.0000000000000000  0.4721568855097842   T   T   T
  0.2293000523252786  0.5000000001114770  0.0408550205356732   F   F   F
  0.2285189690244653  0.5000000001114770  0.2969643863058823   T   T   T
  0.7706999158760581  0.5000000001114770  0.2091450438310645   F   F   F
  0.7648145163861184  0.5000000001114770  0.4702499387202556   T   T   T
  0.1308299482658555  0.0000000000000000  0.1166799939853860   F   F   F
  0.1241627368851994  0.0000000000000000  0.3758300233119652   T   T   T
  0.8691700041504191  0.0000000000000000  0.1333200212379353   F   F   F
  0.8600568922276183  0.0000000000000000  0.3864555808046204   T   T   T
  0.6308299109870603  0.5000000001114770  0.1166799939853860   F   F   F
  0.6209602263213888  0.5000000001114770  0.3737024782271616   T   T   T
  0.3691700537012039  0.5000000001114770  0.1333200212379353   F   F   F
  0.3652159710523206  0.5000000001114770  0.3916644715555423   T   T   T
  0.0931000163117375  0.0000000000000000  0.0128750131244786   F   F   F
  0.0924376242645481  0.0000000000000000  0.2645560842265988   T   T   T
  0.9068999793841002  0.0000000000000000  0.2371250008620152   F   F   F
  0.9003752926941900  0.0000000000000000  0.4860229027808629   T   T   T
  0.5931000348809334  0.5000000001114770  0.0128750131244786   F   F   F
  0.5880927150857221  0.5000000001114770  0.2644235532873042   T   T   T
  0.4068999545749108  0.5000000001114770  0.2371250008620152   F   F   F
  0.3963297946550684  0.5000000001114770  0.4862223462335651   T   T   T
  0.6262789650662117  0.5000000001114770  0.5095350190799008   T   T   T
  0.1674533941844637  0.5000000001114770  0.5003022052768211   T   T   T
  0.3696084561121459  0.0000000000000000  0.5210774829854876   T   T   T
 
  0.00000000E+00  0.00000000E+00  0.00000000E+00
  0.00000000E+00  0.00000000E+00  0.00000000E+00
  0.00000000E+00  0.00000000E+00  0.00000000E+00
  0.00000000E+00  0.00000000E+00  0.00000000E+00
  0.00000000E+00  0.00000000E+00  0.00000000E+00
  0.00000000E+00  0.00000000E+00  0.00000000E+00
  0.00000000E+00  0.00000000E+00  0.00000000E+00
  0.00000000E+00  0.00000000E+00  0.00000000E+00
  0.00000000E+00  0.00000000E+00  0.00000000E+00
  0.00000000E+00  0.00000000E+00  0.00000000E+00
  0.00000000E+00  0.00000000E+00  0.00000000E+00
  0.00000000E+00  0.00000000E+00  0.00000000E+00
  0.00000000E+00  0.00000000E+00  0.00000000E+00
  0.00000000E+00  0.00000000E+00  0.00000000E+00
  0.00000000E+00  0.00000000E+00  0.00000000E+00
  0.00000000E+00  0.00000000E+00  0.00000000E+00
  0.00000000E+00  0.00000000E+00  0.00000000E+00
  0.00000000E+00  0.00000000E+00  0.00000000E+00
  0.00000000E+00  0.00000000E+00  0.00000000E+00
  0.00000000E+00  0.00000000E+00  0.00000000E+00
  0.00000000E+00  0.00000000E+00  0.00000000E+00
  0.00000000E+00  0.00000000E+00  0.00000000E+00
  0.00000000E+00  0.00000000E+00  0.00000000E+00
  0.00000000E+00  0.00000000E+00  0.00000000E+00
  0.00000000E+00  0.00000000E+00  0.00000000E+00
  0.00000000E+00  0.00000000E+00  0.00000000E+00
  0.00000000E+00  0.00000000E+00  0.00000000E+00
  0.00000000E+00  0.00000000E+00  0.00000000E+00
  0.00000000E+00  0.00000000E+00  0.00000000E+00
  0.00000000E+00  0.00000000E+00  0.00000000E+00
  0.00000000E+00  0.00000000E+00  0.00000000E+00
  0.00000000E+00  0.00000000E+00  0.00000000E+00
  0.00000000E+00  0.00000000E+00  0.00000000E+00
  0.00000000E+00  0.00000000E+00  0.00000000E+00
  0.00000000E+00  0.00000000E+00  0.00000000E+00
