Nickel zinc boride (3/1/2)              
   1.00000000000000     
     9.5155229567999999    0.0000000000000000    0.0000000000000000
     0.0000000000000000    2.8443119526000000    0.0000000000000000
    -6.7200700749999998    0.0000000000000000   33.1553294495000017
   Ni   Zn   B    H 
    24    10    16     4
Selective dynamics
Direct
  0.0803399943409744  0.0000000000000000  0.1814825053741345   F   F   F
  0.0977111891687573 -0.0000000000000000  0.4350371466570681   T   T   T
  0.6427599819754022  0.0000000000000000  0.0558475176613840   F   F   F
  0.6546514534452237 -0.0000000000000000  0.3070455556125243   T   T   T
  0.5803400883557757  0.4999999580566410  0.1814825053741345   F   F   F
  0.5977112642671062  0.4999999580566410  0.4350371466570681   T   T   T
  0.1427599945233240  0.4999999580566410  0.0558475176613840   F   F   F
  0.1546514784990178  0.4999999580566410  0.3070455556125243   T   T   T
  0.3583500461670184  0.0000000000000000  0.1910850085700346   F   F   F
  0.3736143789761636 -0.0000000000000000  0.4422148251857820   T   T   T
  0.3647500266358534  0.0000000000000000  0.0462450180546483   F   F   F
  0.3773505279771285 -0.0000000000000000  0.2981260763593856   T   T   T
  0.8583500462300719  0.4999999580566410  0.1910850085700346   F   F   F
  0.8736144540745054  0.4999999580566410  0.4422148251857820   T   T   T
  0.8647500768275265  0.4999999580566410  0.0462450180546483   F   F   F
  0.8773504903123597  0.4999999580566410  0.2981260763593856   T   T   T
  0.5004899841531127  0.0000000000000000  0.1194275083295793   F   F   F
  0.5163876624012078 -0.0000000000000000  0.3716965548284357   T   T   T
  0.2226100611032535  0.0000000000000000  0.1179025147059392   F   F   F
  0.2388003307645388 -0.0000000000000000  0.3699353314698679   T   T   T
  0.0004899277610448  0.4999999580566410  0.1194275083295793   F   F   F
  0.0163875370691572  0.4999999580566410  0.3716965548284357   T   T   T
  0.7226100861780722  0.4999999580566410  0.1179025147059392   F   F   F
  0.7388003308275923  0.4999999580566410  0.3699353314698679   T   T   T
  0.0000000000000000  0.0000000000000000  0.0000000000000000   F   F   F
  0.0291301357545251  0.0000000000000000  0.5046647334824020   T   T   T
  0.0022461748891605 -0.0000000000000000  0.2506685423993897   T   T   T
  0.7231000653037185  0.0000000000000000  0.2373300158571823   F   F   F
  0.7525143567565487  0.0000000000000000  0.4913652620851066   T   T   T
  0.4999999499344412  0.4999999580566410  0.0000000000000000   F   F   F
  0.5291300856889661  0.4999999580566410  0.5046647334824022   T   T   T
  0.5022460495571102  0.4999999580566410  0.2506685423993897   T   T   T
  0.2230999775944085  0.4999999580566410  0.2373300158571823   F   F   F
  0.2525142315295945  0.4999999580566410  0.4913652620851066   T   T   T
  0.0165499456969869  0.0000000000000000  0.0724399915150329   F   F   F
  0.0295829975888829 -0.0000000000000000  0.3242727502384504   T   T   T
  0.7065500142587098  0.0000000000000000  0.1648900171336507   F   F   F
  0.7235183780656232 -0.0000000000000000  0.4172628905295574   T   T   T
  0.5165500459121830  0.4999999580566410  0.0724399915150329   F   F   F
  0.5295831228158437  0.4999999580566410  0.3242727502384504   T   T   T
  0.2065500393125106  0.4999999580566410  0.1648900171336507   F   F   F
  0.2235184031194170  0.4999999580566410  0.4172628905295574   T   T   T
  0.8760500959027553  0.0000000000000000  0.1466400131057455   F   F   F
  0.8943794404212859 -0.0000000000000000  0.3989228884046994   T   T   T
  0.8470499694006790  0.0000000000000000  0.0906900027212743   F   F   F
  0.8598018746403998 -0.0000000000000000  0.3425215111469852   T   T   T
  0.3760499956875591  0.4999999580566410  0.1466400131057455   F   F   F
  0.3943793150892357  0.4999999580566410  0.3989228884046994   T   T   T
  0.3470500194662449  0.4999999580566410  0.0906900027212743   F   F   F
  0.3598018244487337  0.4999999580566410  0.3425215111469852   T   T   T
  0.3989457446314231  0.4999999580566410  0.5321336663786089   T   T   T
  0.1369079894842704  0.4999999580566410  0.5295417104097135   T   T   T
  0.6369081147112312 -0.0000000000000000  0.5295417104097135   T   T   T
 -0.1010542053030108 -0.0000000000000000  0.5321336663786089   T   T   T
 
  0.00000000E+00  0.00000000E+00  0.00000000E+00
  0.00000000E+00  0.00000000E+00  0.00000000E+00
  0.00000000E+00  0.00000000E+00  0.00000000E+00
  0.00000000E+00  0.00000000E+00  0.00000000E+00
  0.00000000E+00  0.00000000E+00  0.00000000E+00
  0.00000000E+00  0.00000000E+00  0.00000000E+00
  0.00000000E+00  0.00000000E+00  0.00000000E+00
  0.00000000E+00  0.00000000E+00  0.00000000E+00
  0.00000000E+00  0.00000000E+00  0.00000000E+00
  0.00000000E+00  0.00000000E+00  0.00000000E+00
  0.00000000E+00  0.00000000E+00  0.00000000E+00
  0.00000000E+00  0.00000000E+00  0.00000000E+00
  0.00000000E+00  0.00000000E+00  0.00000000E+00
  0.00000000E+00  0.00000000E+00  0.00000000E+00
  0.00000000E+00  0.00000000E+00  0.00000000E+00
  0.00000000E+00  0.00000000E+00  0.00000000E+00
  0.00000000E+00  0.00000000E+00  0.00000000E+00
  0.00000000E+00  0.00000000E+00  0.00000000E+00
  0.00000000E+00  0.00000000E+00  0.00000000E+00
  0.00000000E+00  0.00000000E+00  0.00000000E+00
  0.00000000E+00  0.00000000E+00  0.00000000E+00
  0.00000000E+00  0.00000000E+00  0.00000000E+00
  0.00000000E+00  0.00000000E+00  0.00000000E+00
  0.00000000E+00  0.00000000E+00  0.00000000E+00
  0.00000000E+00  0.00000000E+00  0.00000000E+00
  0.00000000E+00  0.00000000E+00  0.00000000E+00
  0.00000000E+00  0.00000000E+00  0.00000000E+00
  0.00000000E+00  0.00000000E+00  0.00000000E+00
  0.00000000E+00  0.00000000E+00  0.00000000E+00
  0.00000000E+00  0.00000000E+00  0.00000000E+00
  0.00000000E+00  0.00000000E+00  0.00000000E+00
  0.00000000E+00  0.00000000E+00  0.00000000E+00
  0.00000000E+00  0.00000000E+00  0.00000000E+00
  0.00000000E+00  0.00000000E+00  0.00000000E+00
  0.00000000E+00  0.00000000E+00  0.00000000E+00
  0.00000000E+00  0.00000000E+00  0.00000000E+00
  0.00000000E+00  0.00000000E+00  0.00000000E+00
  0.00000000E+00  0.00000000E+00  0.00000000E+00
  0.00000000E+00  0.00000000E+00  0.00000000E+00
  0.00000000E+00  0.00000000E+00  0.00000000E+00
  0.00000000E+00  0.00000000E+00  0.00000000E+00
  0.00000000E+00  0.00000000E+00  0.00000000E+00
  0.00000000E+00  0.00000000E+00  0.00000000E+00
  0.00000000E+00  0.00000000E+00  0.00000000E+00
  0.00000000E+00  0.00000000E+00  0.00000000E+00
  0.00000000E+00  0.00000000E+00  0.00000000E+00
  0.00000000E+00  0.00000000E+00  0.00000000E+00
  0.00000000E+00  0.00000000E+00  0.00000000E+00
  0.00000000E+00  0.00000000E+00  0.00000000E+00
  0.00000000E+00  0.00000000E+00  0.00000000E+00
  0.00000000E+00  0.00000000E+00  0.00000000E+00
  0.00000000E+00  0.00000000E+00  0.00000000E+00
  0.00000000E+00  0.00000000E+00  0.00000000E+00
  0.00000000E+00  0.00000000E+00  0.00000000E+00
