Nickel zinc boride (2/1/1)
1.0
        9.5296001434         0.0000000000         0.0000000000
        0.0000000000         2.8371000290         0.0000000000
       -0.3147949563         0.0000000000         5.9906347398
   Ni   Zn    B
    8    4    4
Cartesian
     1.993121862         0.000000000         5.677983761
     2.895123243         0.000000000         3.292752504
     6.757921219         1.418550014         5.677983761
     7.659922600         1.418550014         3.292752504
     4.577816486         0.000000000         5.464357853
     0.310428709         0.000000000         3.506378889
    -0.186983913         1.418550014         5.464357853
     5.075228691         1.418550014         3.506378889
     8.623554230         0.000000000         1.290682435
     6.109086990         0.000000000         1.689419031
     3.858753681         1.418550014         1.290682435
     1.344286084         1.418550014         1.689419031
     8.079916954         0.000000000         4.793885708
     6.337928772         0.000000000         4.176850319
     3.315116405         1.418550014         4.793885708
     1.573128581         1.418550014         4.176850319
