Nickel zinc boride (3/1/2)              
1.0
        9.5155229568         0.0000000000         0.0000000000
        0.0000000000         2.8443119526         0.0000000000
       -6.7200700750         0.0000000000        33.1553294495
   Ni   Zn    B    H
   24   10   16    1
Selective dynamics
Cartesian
    -0.455098093         0.000000000         6.017112732 F F F 
    -2.157052040         0.000000000        14.383367538 F F F
     5.740898132         0.000000000         1.851642966 F F F
     4.077293873         0.000000000        10.151925087 F F F
     4.302663803         1.422155857         6.017112732 F F F
     2.600710154         1.422155857        14.383367538 F F F
     0.983136773         1.422155857         1.851642966 F F F
    -0.680467367         1.422155857        10.151925087 F F F
     2.125783443         0.000000000         6.335486889 F F F
     0.415898085         0.000000000        14.611158371 F F F
     3.160017490         0.000000000         1.533268929 F F F
     1.505928755         0.000000000         9.851607323 F F F
     6.883544922         1.422155857         6.335486889 F F F
     5.173660278         1.422155857        14.611158371 F F F
     7.917779446         1.422155857         1.533268929 F F F
     6.263689518         1.422155857         9.851607323 F F F
     3.959862709         0.000000000         3.959658623 F F F
     2.286798477         0.000000000        12.292563438 F F F
     1.325937986         0.000000000         3.909096956 F F F
    -0.348740101         0.000000000        12.219465256 F F F
    -0.797899306         1.422155857         3.959658623 F F F
    -2.470963955         1.422155857        12.292563438 F F F
     6.083699703         1.422155857         3.909096956 F F F
     4.409021378         1.422155857        12.219465256 F F F
     0.000000000         0.000000000         0.000000000 F F F
    -3.302552462         0.000000000        16.678577423 F F F
     7.834212780         0.000000000         8.294462204 F F F
     5.285800934         0.000000000         7.868755341 F F F
     3.677590847         0.000000000        16.238992691 F F F
     4.757761002         1.422155857         0.000000000 F F F
     1.455208540         1.422155857        16.678577423 F F F
     3.076449871         1.422155857         8.294462204 F F F
     0.528038621         1.422155857         7.868755341 F F F
    -1.080171347         1.422155857        16.238992691 F F F
    -0.329320431         0.000000000         2.401771784 F F F
    -1.995828152         0.000000000        10.725394249 F F F
     5.615119934         0.000000000         5.466983318 F F F
     3.919122696         0.000000000        13.787784576 F F F
     4.428442478         1.422155857         2.401771784 F F F
     2.761934280         1.422155857        10.725394249 F F F
     0.857359052         1.422155857         5.466983318 F F F
    -0.838638663         1.422155857        13.787784576 F F F
     7.350643635         0.000000000         4.861898422 F F F
     5.677112579         0.000000000        13.177639008 F F F
     7.450680256         0.000000000         3.006856918 F F F
     5.771941185         0.000000000        11.319211960 F F F
     2.592881203         1.422155857         4.861898422 F F F
     0.919349432         1.422155857        13.177639008 F F F
     2.692919254         1.422155857         3.006856918 F F F
     1.014179707         1.422155857        11.319211960 F F F
    -2.476533175         1.422155857        17.494770050 F F T
     
