Nickel zinc boride (2/1/1)              
   1.00000000000000     
     9.6178741450054588    0.0000000000000000   -0.0342192104882284
     0.0000000000000000    2.7004696836422912    0.0000000000000000
    -0.7735391153637904    0.0000000000000000   24.1173286834000571
   Ni   Zn   B    H 
    16     8     8     1
Selective dynamics
Direct
  0.4592499479736958  0.0000000000000000  0.0497700204952878   F   F   F
  0.4687372617414333  0.0000000000000000  0.3021564075981056   T   T   T
  0.5407500164678467  0.0000000000000000  0.2002299898219420   F   F   F
  0.5417063353234632  0.0000000000000000  0.4673854468266191   T   T   T
  0.9592498488149204  0.5000000001114770  0.0497700204952878   F   F   F
  0.9671654687118288  0.5000000001114770  0.3013916557529787   T   T   T
  0.0407500350266474  0.5000000001114770  0.2002299898219420   F   F   F
  0.0437787769045298  0.5000000001114770  0.4561398484584439   T   T   T
  0.7293001514944564  0.0000000000000000  0.0408550205356732   F   F   F
  0.7349701105737507  0.0000000000000000  0.2947509609005317   T   T   T
  0.2706999406748523  0.0000000000000000  0.2091450438310645   F   F   F
  0.2682446057480332  0.0000000000000000  0.4649175138528699   T   T   T
  0.2293000523252786  0.5000000001114770  0.0408550205356732   F   F   F
  0.2359967048647655  0.5000000001114770  0.2944651403673269   T   T   T
  0.7706999158760581  0.5000000001114770  0.2091450438310645   F   F   F
  0.7772719015466720  0.5000000001114770  0.4690530968648151   T   T   T
  0.1308299482658555  0.0000000000000000  0.1166799939853860   F   F   F
  0.1326970631224750  0.0000000000000000  0.3717941449597461   T   T   T
  0.8691700041504191  0.0000000000000000  0.1333200212379353   F   F   F
  0.8711850053961558  0.0000000000000000  0.3847619307226932   T   T   T
  0.6308299109870603  0.5000000001114770  0.1166799939853860   F   F   F
  0.6337776383838583  0.5000000001114770  0.3745159956598934   T   T   T
  0.3691700537012039  0.5000000001114770  0.1333200212379353   F   F   F
  0.3735651907535376  0.5000000001114770  0.3849532139908256   T   T   T
  0.0931000163117375  0.0000000000000000  0.0128750131244786   F   F   F
  0.0973116692030420  0.0000000000000000  0.2629133184980344   T   T   T
  0.9068999793841002  0.0000000000000000  0.2371250008620152   F   F   F
  0.9180762771546132  0.0000000000000000  0.4792142483611702   T   T   T
  0.5931000348809334  0.5000000001114770  0.0128750131244786   F   F   F
  0.5971308862992520  0.5000000001114770  0.2628030079435927   T   T   T
  0.4068999545749108  0.5000000001114770  0.2371250008620152   F   F   F
  0.4009749350750918  0.5000000001114770  0.4810066811452122   T   T   T
  0.6256955583558385  0.5000000001114770  0.4996346483216959   T   T   T
 
  0.00000000E+00  0.00000000E+00  0.00000000E+00
  0.00000000E+00  0.00000000E+00  0.00000000E+00
  0.00000000E+00  0.00000000E+00  0.00000000E+00
  0.00000000E+00  0.00000000E+00  0.00000000E+00
  0.00000000E+00  0.00000000E+00  0.00000000E+00
  0.00000000E+00  0.00000000E+00  0.00000000E+00
  0.00000000E+00  0.00000000E+00  0.00000000E+00
  0.00000000E+00  0.00000000E+00  0.00000000E+00
  0.00000000E+00  0.00000000E+00  0.00000000E+00
  0.00000000E+00  0.00000000E+00  0.00000000E+00
  0.00000000E+00  0.00000000E+00  0.00000000E+00
  0.00000000E+00  0.00000000E+00  0.00000000E+00
  0.00000000E+00  0.00000000E+00  0.00000000E+00
  0.00000000E+00  0.00000000E+00  0.00000000E+00
  0.00000000E+00  0.00000000E+00  0.00000000E+00
  0.00000000E+00  0.00000000E+00  0.00000000E+00
  0.00000000E+00  0.00000000E+00  0.00000000E+00
  0.00000000E+00  0.00000000E+00  0.00000000E+00
  0.00000000E+00  0.00000000E+00  0.00000000E+00
  0.00000000E+00  0.00000000E+00  0.00000000E+00
  0.00000000E+00  0.00000000E+00  0.00000000E+00
  0.00000000E+00  0.00000000E+00  0.00000000E+00
  0.00000000E+00  0.00000000E+00  0.00000000E+00
  0.00000000E+00  0.00000000E+00  0.00000000E+00
  0.00000000E+00  0.00000000E+00  0.00000000E+00
  0.00000000E+00  0.00000000E+00  0.00000000E+00
  0.00000000E+00  0.00000000E+00  0.00000000E+00
  0.00000000E+00  0.00000000E+00  0.00000000E+00
  0.00000000E+00  0.00000000E+00  0.00000000E+00
  0.00000000E+00  0.00000000E+00  0.00000000E+00
  0.00000000E+00  0.00000000E+00  0.00000000E+00
  0.00000000E+00  0.00000000E+00  0.00000000E+00
  0.00000000E+00  0.00000000E+00  0.00000000E+00
