Nickel zinc boride (2/1/1)              
   1.00000000000000     
     9.7033115953879658    0.0000000000000000   -0.1537980448907752
     0.0000000000000000    2.6917241251682995    0.0000000000000000
    -1.0792670158863189    0.0000000000000000   24.0158054270812222
   Ni   Zn   B    H 
    16     8     8     2
Selective dynamics
Direct
  0.4592499479736958  0.0000000000000000  0.0497700204952878   F   F   F
  0.4695878097887925  0.0000000000000000  0.3021435993147610   T   T   T
  0.5407500164678467  0.0000000000000000  0.2002299898219420   F   F   F
  0.5425441420651013  0.0000000000000000  0.4737666592734511   T   T   T
  0.9592498488149204  0.5000000001114770  0.0497700204952878   F   F   F
  0.9678034612961659  0.5000000001114770  0.3018776180855284   T   T   T
  0.0407500350266474  0.5000000001114770  0.2002299898219420   F   F   F
  0.0355980533191135  0.5000000001114770  0.4614532812041930   T   T   T
  0.7293001514944564  0.0000000000000000  0.0408550205356732   F   F   F
  0.7336007188748387  0.0000000000000000  0.2936325143611023   T   T   T
  0.2706999406748523  0.0000000000000000  0.2091450438310645   F   F   F
  0.2738068244201197  0.0000000000000000  0.4656756905527502   T   T   T
  0.2293000523252786  0.5000000001114770  0.0408550205356732   F   F   F
  0.2376172804401463  0.5000000001114770  0.2937506447619594   T   T   T
  0.7706999158760581  0.5000000001114770  0.2091450438310645   F   F   F
  0.7660174512885806  0.5000000001114770  0.4695161259499232   T   T   T
  0.1308299482658555  0.0000000000000000  0.1166799939853860   F   F   F
  0.1317107086302691  0.0000000000000000  0.3716429317110129   T   T   T
  0.8691700041504191  0.0000000000000000  0.1333200212379353   F   F   F
  0.8707332430441002  0.0000000000000000  0.3838080207792531   T   T   T
  0.6308299109870603  0.5000000001114770  0.1166799939853860   F   F   F
  0.6308899382995166  0.5000000001114770  0.3736740642424547   T   T   T
  0.3691700537012039  0.5000000001114770  0.1333200212379353   F   F   F
  0.3757924725404532  0.5000000001114770  0.3857181566039996   T   T   T
  0.0931000163117375  0.0000000000000000  0.0128750131244786   F   F   F
  0.0964575337093878  0.0000000000000000  0.2642513316650894   T   T   T
  0.9068999793841002  0.0000000000000000  0.2371250008620152   F   F   F
  0.9058974647368547  0.0000000000000000  0.4808222364229754   T   T   T
  0.5931000348809334  0.5000000001114770  0.0128750131244786   F   F   F
  0.5953221939792362  0.5000000001114770  0.2625574315939495   T   T   T
  0.4068999545749108  0.5000000001114770  0.2371250008620152   F   F   F
  0.4082809453243582  0.5000000001114770  0.4823706060778112   T   T   T
  0.6243956832807930  0.5000000001114770  0.5122433295435953   T   T   T
  0.1899209922549606  0.5000000001114770  0.4939598984646058   T   T   T
 
  0.00000000E+00  0.00000000E+00  0.00000000E+00
  0.00000000E+00  0.00000000E+00  0.00000000E+00
  0.00000000E+00  0.00000000E+00  0.00000000E+00
  0.00000000E+00  0.00000000E+00  0.00000000E+00
  0.00000000E+00  0.00000000E+00  0.00000000E+00
  0.00000000E+00  0.00000000E+00  0.00000000E+00
  0.00000000E+00  0.00000000E+00  0.00000000E+00
  0.00000000E+00  0.00000000E+00  0.00000000E+00
  0.00000000E+00  0.00000000E+00  0.00000000E+00
  0.00000000E+00  0.00000000E+00  0.00000000E+00
  0.00000000E+00  0.00000000E+00  0.00000000E+00
  0.00000000E+00  0.00000000E+00  0.00000000E+00
  0.00000000E+00  0.00000000E+00  0.00000000E+00
  0.00000000E+00  0.00000000E+00  0.00000000E+00
  0.00000000E+00  0.00000000E+00  0.00000000E+00
  0.00000000E+00  0.00000000E+00  0.00000000E+00
  0.00000000E+00  0.00000000E+00  0.00000000E+00
  0.00000000E+00  0.00000000E+00  0.00000000E+00
  0.00000000E+00  0.00000000E+00  0.00000000E+00
  0.00000000E+00  0.00000000E+00  0.00000000E+00
  0.00000000E+00  0.00000000E+00  0.00000000E+00
  0.00000000E+00  0.00000000E+00  0.00000000E+00
  0.00000000E+00  0.00000000E+00  0.00000000E+00
  0.00000000E+00  0.00000000E+00  0.00000000E+00
  0.00000000E+00  0.00000000E+00  0.00000000E+00
  0.00000000E+00  0.00000000E+00  0.00000000E+00
  0.00000000E+00  0.00000000E+00  0.00000000E+00
  0.00000000E+00  0.00000000E+00  0.00000000E+00
  0.00000000E+00  0.00000000E+00  0.00000000E+00
  0.00000000E+00  0.00000000E+00  0.00000000E+00
  0.00000000E+00  0.00000000E+00  0.00000000E+00
  0.00000000E+00  0.00000000E+00  0.00000000E+00
  0.00000000E+00  0.00000000E+00  0.00000000E+00
  0.00000000E+00  0.00000000E+00  0.00000000E+00
