Nickel zinc boride (3/1/2)              
   1.00000000000000     
     9.5155229567999999    0.0000000000000000    0.0000000000000000
     0.0000000000000000    2.8443119526000000    0.0000000000000000
    -6.7200700749999998    0.0000000000000000   33.1553294495000017
   Ni   Zn   B    H 
    24    10    16     4
Selective dynamics
Direct
  0.0803399943409744  0.0000000000000000  0.1814825053741345   F   F   F
  0.0796837683867734  0.0000000000000000  0.4338176468513794   T   T   T
  0.6427599819754022  0.0000000000000000  0.0558475176613840   F   F   F
  0.6447287414357673  0.0000000000000000  0.3061928516898148   T   T   T
  0.5803400883557757  0.4999999580566410  0.1814825053741345   F   F   F
  0.5796838434851225  0.4999999580566410  0.4338176468513794   T   T   T
  0.1427599945233240  0.4999999580566410  0.0558475176613840   F   F   F
  0.1447287664895608  0.4999999580566410  0.3061928516898148   T   T   T
  0.3583500461670184  0.0000000000000000  0.1910850085700346   F   F   F
  0.3549308559086385  0.0000000000000000  0.4406880728118585   T   T   T
  0.3647500266358534  0.0000000000000000  0.0462450180546483   F   F   F
  0.3681033789379680  0.0000000000000000  0.2971349490882534   T   T   T
  0.8583500462300719  0.4999999580566410  0.1910850085700346   F   F   F
  0.8549309310069797  0.4999999580566410  0.4406880728118585   T   T   T
  0.8647500768275265  0.4999999580566410  0.0462450180546483   F   F   F
  0.8681033412731992  0.4999999580566410  0.2971349490882534   T   T   T
  0.5004899841531127  0.0000000000000000  0.1194275083295793   F   F   F
  0.5021594739528668  0.0000000000000000  0.3707567791879995   T   T   T
  0.2226100611032535  0.0000000000000000  0.1179025147059392   F   F   F
  0.2236299068899963  0.0000000000000000  0.3685520569404792   T   T   T
  0.0004899277610448  0.4999999580566410  0.1194275083295793   F   F   F
  0.0021593486208161  0.4999999580566410  0.3707567791879995   T   T   T
  0.7226100861780722  0.4999999580566410  0.1179025147059392   F   F   F
  0.7236299069530501  0.4999999580566410  0.3685520569404792   T   T   T
  0.0000000000000000  0.0000000000000000  0.0000000000000000   F   F   F
  0.0081903784291757  0.0000000000000000  0.5030435948999251   T   T   T
 -0.0000159807998323  0.0000000000000000  0.2501697692660655   T   T   T
  0.7231000653037185  0.0000000000000000  0.2373300158571823   F   F   F
  0.7323804154076078 -0.0000000000000000  0.4897852885454645   T   T   T
  0.4999999499344412  0.4999999580566410  0.0000000000000000   F   F   F
  0.5081903283636166  0.4999999580566410  0.5030435948999251   T   T   T
  0.4999838938681172  0.4999999580566410  0.2501697692660655   T   T   T
  0.2230999775944085  0.4999999580566410  0.2373300158571823   F   F   F
  0.2323802901806539  0.4999999580566410  0.4897852885454645   T   T   T
  0.0165499456969869  0.0000000000000000  0.0724399915150329   F   F   F
  0.0187107352381834  0.0000000000000000  0.3234892842612584   T   T   T
  0.7065500142587098  0.0000000000000000  0.1648900171336507   F   F   F
  0.7055515602893941  0.0000000000000000  0.4158542323240833   T   T   T
  0.5165500459121830  0.4999999580566410  0.0724399915150329   F   F   F
  0.5187108604651445  0.4999999580566410  0.3234892842612584   T   T   T
  0.2065500393125106  0.4999999580566410  0.1648900171336507   F   F   F
  0.2055515853431881  0.4999999580566410  0.4158542323240833   T   T   T
  0.8760500959027553  0.0000000000000000  0.1466400131057455   F   F   F
  0.8773048507425713  0.0000000000000000  0.3974515822005696   T   T   T
  0.8470499694006790  0.0000000000000000  0.0906900027212743   F   F   F
  0.8476854130462702  0.0000000000000000  0.3413994606817036   T   T   T
  0.3760499956875591  0.4999999580566410  0.1466400131057455   F   F   F
  0.3773047254105207  0.4999999580566410  0.3974515822005696   T   T   T
  0.3470500194662449  0.4999999580566410  0.0906900027212743   F   F   F
  0.3476853628546042  0.4999999580566410  0.3413994606817036   T   T   T
  0.3778193309500634  0.4999999580566410  0.5305620630085088   T   T   T
  0.1123831678588510  0.4999999580566410  0.5276608327478731   T   T   T
  0.6123832930858124  0.0000000000000000  0.5276608327478731   T   T   T
  0.8778193810156294  0.0000000000000000  0.5305620630085088   T   T   T
 
  0.00000000E+00  0.00000000E+00  0.00000000E+00
  0.00000000E+00  0.00000000E+00  0.00000000E+00
  0.00000000E+00  0.00000000E+00  0.00000000E+00
  0.00000000E+00  0.00000000E+00  0.00000000E+00
  0.00000000E+00  0.00000000E+00  0.00000000E+00
  0.00000000E+00  0.00000000E+00  0.00000000E+00
  0.00000000E+00  0.00000000E+00  0.00000000E+00
  0.00000000E+00  0.00000000E+00  0.00000000E+00
  0.00000000E+00  0.00000000E+00  0.00000000E+00
  0.00000000E+00  0.00000000E+00  0.00000000E+00
  0.00000000E+00  0.00000000E+00  0.00000000E+00
  0.00000000E+00  0.00000000E+00  0.00000000E+00
  0.00000000E+00  0.00000000E+00  0.00000000E+00
  0.00000000E+00  0.00000000E+00  0.00000000E+00
  0.00000000E+00  0.00000000E+00  0.00000000E+00
  0.00000000E+00  0.00000000E+00  0.00000000E+00
  0.00000000E+00  0.00000000E+00  0.00000000E+00
  0.00000000E+00  0.00000000E+00  0.00000000E+00
  0.00000000E+00  0.00000000E+00  0.00000000E+00
  0.00000000E+00  0.00000000E+00  0.00000000E+00
  0.00000000E+00  0.00000000E+00  0.00000000E+00
  0.00000000E+00  0.00000000E+00  0.00000000E+00
  0.00000000E+00  0.00000000E+00  0.00000000E+00
  0.00000000E+00  0.00000000E+00  0.00000000E+00
  0.00000000E+00  0.00000000E+00  0.00000000E+00
  0.00000000E+00  0.00000000E+00  0.00000000E+00
  0.00000000E+00  0.00000000E+00  0.00000000E+00
  0.00000000E+00  0.00000000E+00  0.00000000E+00
  0.00000000E+00  0.00000000E+00  0.00000000E+00
  0.00000000E+00  0.00000000E+00  0.00000000E+00
  0.00000000E+00  0.00000000E+00  0.00000000E+00
  0.00000000E+00  0.00000000E+00  0.00000000E+00
  0.00000000E+00  0.00000000E+00  0.00000000E+00
  0.00000000E+00  0.00000000E+00  0.00000000E+00
  0.00000000E+00  0.00000000E+00  0.00000000E+00
  0.00000000E+00  0.00000000E+00  0.00000000E+00
  0.00000000E+00  0.00000000E+00  0.00000000E+00
  0.00000000E+00  0.00000000E+00  0.00000000E+00
  0.00000000E+00  0.00000000E+00  0.00000000E+00
  0.00000000E+00  0.00000000E+00  0.00000000E+00
  0.00000000E+00  0.00000000E+00  0.00000000E+00
  0.00000000E+00  0.00000000E+00  0.00000000E+00
  0.00000000E+00  0.00000000E+00  0.00000000E+00
  0.00000000E+00  0.00000000E+00  0.00000000E+00
  0.00000000E+00  0.00000000E+00  0.00000000E+00
  0.00000000E+00  0.00000000E+00  0.00000000E+00
  0.00000000E+00  0.00000000E+00  0.00000000E+00
  0.00000000E+00  0.00000000E+00  0.00000000E+00
  0.00000000E+00  0.00000000E+00  0.00000000E+00
  0.00000000E+00  0.00000000E+00  0.00000000E+00
  0.00000000E+00  0.00000000E+00  0.00000000E+00
  0.00000000E+00  0.00000000E+00  0.00000000E+00
  0.00000000E+00  0.00000000E+00  0.00000000E+00
  0.00000000E+00  0.00000000E+00  0.00000000E+00
