Nickel zinc boride (2/1/1)              
   1.00000000000000     
     9.5396847325186567    0.0000000000000000    0.0091232329074360
     0.0000000000000000    2.7716467976818477    0.0000000000000000
    -1.2369249531923219    0.0000000000000000   24.3985698087906577
   Ni   Zn   B 
    16     8     8
Selective dynamics
Direct
  0.2404600191669886  0.0000000000000000  0.2369525203346612   F   F   F
  0.2420966553072832 -0.0000000000000000  0.4833163058858850   T   T   T
  0.3219600018775495  0.0000000000000000  0.1374125256762824   F   F   F
  0.3193526520892849 -0.0000000000000000  0.3861646414074889   T   T   T
  0.7404599067068673  0.4999999948891443  0.2369525203346612   F   F   F
  0.7420965428471619  0.4999999948891443  0.4833163058858850   T   T   T
  0.8219599943536267  0.4999999948891443  0.1374125256762824   F   F   F
  0.8193526445653621  0.4999999948891443  0.3861646414074889   T   T   T
  0.5105100081447986  0.0000000000000000  0.2280375217878188   F   F   F
  0.5117482539733226 -0.0000000000000000  0.4793977933316811   T   T   T
  0.0519100128997394  0.0000000000000000  0.1463275242231319   F   F   F
  0.0498232785810919 -0.0000000000000000  0.3966856031067770   T   T   T
  0.0105100156687286  0.4999999948891443  0.2280375217878188   F   F   F
  0.0117482614972454  0.4999999948891443  0.4793977933316811   T   T   T
  0.5519100053758095  0.4999999948891443  0.1463275242231319   F   F   F
  0.5498232710571692  0.4999999948891443  0.3966856031067770   T   T   T
  0.9120400047394313  0.0000000000000000  0.0538624893713333   F   F   F
  0.9115740720486469 -0.0000000000000000  0.3043984287241507   T   T   T
  0.6503801038302015  0.0000000000000000  0.0705025040491947   F   F   F
  0.6492213764833091 -0.0000000000000000  0.3202811015270204   T   T   T
  0.4120400122633541  0.4999999948891443  0.0538624893713333   F   F   F
  0.4115740795725696  0.4999999948891443  0.3043984287241507   T   T   T
  0.1503800064179330  0.4999999948891443  0.0705025040491947   F   F   F
  0.1492212790710406  0.4999999948891443  0.3202811015270204   T   T   T
  0.8743100719374510  0.0000000000000000  0.2000575151140040   F   F   F
  0.8761752816747634 -0.0000000000000000  0.4508667122499773   T   T   T
  0.6881100334812587  0.0000000000000000  0.1743074891651375   F   F   F
  0.6873285425957892 -0.0000000000000000  0.4265474167268190   T   T   T
  0.3743099745251754  0.4999999948891443  0.2000575151140040   F   F   F
  0.3761751842624880  0.4999999948891443  0.4508667122499773   T   T   T
  0.1881100410051886  0.4999999948891443  0.1743074891651375   F   F   F
  0.1873285501197191  0.4999999948891443  0.4265474167268190   T   T   T
 
  0.00000000E+00  0.00000000E+00  0.00000000E+00
  0.00000000E+00  0.00000000E+00  0.00000000E+00
  0.00000000E+00  0.00000000E+00  0.00000000E+00
  0.00000000E+00  0.00000000E+00  0.00000000E+00
  0.00000000E+00  0.00000000E+00  0.00000000E+00
  0.00000000E+00  0.00000000E+00  0.00000000E+00
  0.00000000E+00  0.00000000E+00  0.00000000E+00
  0.00000000E+00  0.00000000E+00  0.00000000E+00
  0.00000000E+00  0.00000000E+00  0.00000000E+00
  0.00000000E+00  0.00000000E+00  0.00000000E+00
  0.00000000E+00  0.00000000E+00  0.00000000E+00
  0.00000000E+00  0.00000000E+00  0.00000000E+00
  0.00000000E+00  0.00000000E+00  0.00000000E+00
  0.00000000E+00  0.00000000E+00  0.00000000E+00
  0.00000000E+00  0.00000000E+00  0.00000000E+00
  0.00000000E+00  0.00000000E+00  0.00000000E+00
  0.00000000E+00  0.00000000E+00  0.00000000E+00
  0.00000000E+00  0.00000000E+00  0.00000000E+00
  0.00000000E+00  0.00000000E+00  0.00000000E+00
  0.00000000E+00  0.00000000E+00  0.00000000E+00
  0.00000000E+00  0.00000000E+00  0.00000000E+00
  0.00000000E+00  0.00000000E+00  0.00000000E+00
  0.00000000E+00  0.00000000E+00  0.00000000E+00
  0.00000000E+00  0.00000000E+00  0.00000000E+00
  0.00000000E+00  0.00000000E+00  0.00000000E+00
  0.00000000E+00  0.00000000E+00  0.00000000E+00
  0.00000000E+00  0.00000000E+00  0.00000000E+00
  0.00000000E+00  0.00000000E+00  0.00000000E+00
  0.00000000E+00  0.00000000E+00  0.00000000E+00
  0.00000000E+00  0.00000000E+00  0.00000000E+00
  0.00000000E+00  0.00000000E+00  0.00000000E+00
  0.00000000E+00  0.00000000E+00  0.00000000E+00
