Nickel zinc boride (3/1/2)              
   1.00000000000000     
     9.5154701082706978    0.0000000000000000   -0.0317479778636593
     0.0000000000000000    2.8443118553788542    0.0000000000000000
    -6.6094128280526316    0.0000000000000000   33.1775677634850368
   Ni   Zn   B 
    24    10    16
Selective dynamics
Direct
  0.0803399820410036  0.0000000000000000  0.1814824915604731   F   F   F
  0.0800605704104701 -0.0000000000000000  0.4324033122020675   T   T   T
  0.6427599794745262  0.0000000000000000  0.0558475145683559   F   F   F
  0.6433528821475861 -0.0000000000000000  0.3063382839789999   T   T   T
  0.5803400680180175  0.4999999834549271  0.1814824915604731   F   F   F
  0.5800606563874843  0.4999999834549271  0.4324033122020675   T   T   T
  0.1427599986488772  0.4999999834549271  0.0558475145683559   F   F   F
  0.1433529013219368  0.4999999834549271  0.3063382839789999   T   T   T
  0.3583500343324033  0.0000000000000000  0.1910849903169094   F   F   F
  0.3565689110194876 -0.0000000000000000  0.4435286306400570   T   T   T
  0.3647500323344843  0.0000000000000000  0.0462450158119267   F   F   F
  0.3663944558009106 -0.0000000000000000  0.2971272060329598   T   T   T
  0.8583500151580523  0.4999999834549271  0.1910849903169094   F   F   F
  0.8565689969965012  0.4999999834549271  0.4435286306400570   T   T   T
  0.8647500131601333  0.4999999834549271  0.0462450158119267   F   F   F
  0.8663944366265596  0.4999999834549271  0.2971272060329598   T   T   T
  0.5004900097936940  0.0000000000000000  0.1194274999034874   F   F   F
  0.5005133490972991 -0.0000000000000000  0.3702530087762708   T   T   T
  0.2226100568732008  0.0000000000000000  0.1179025062253487   F   F   F
  0.2234373642629952 -0.0000000000000000  0.3691287093229139   T   T   T
  0.0004899238166800  0.4999999834549271  0.1194274999034874   F   F   F
  0.0005132631202923  0.4999999834549271  0.3702530087762708   T   T   T
  0.7226100376988498  0.4999999834549271  0.1179025062253487   F   F   F
  0.7234373450886443  0.4999999834549271  0.3691287093229139   T   T   T
  0.0000000000000000  0.0000000000000000  0.0000000000000000   F   F   F
  0.0099879273323599 -0.0000000000000000  0.5013282277879134   T   T   T
 -0.0002815719492910 -0.0000000000000000  0.2502725250390850   T   T   T
  0.7231000666668876  0.0000000000000000  0.2373300061288361   F   F   F
  0.7292787308662505 -0.0000000000000000  0.4909764061057911   T   T   T
  0.4999999808256490  0.4999999834549271  0.0000000000000000   F   F   F
  0.5099879081580090  0.4999999834549271  0.5013282277879134   T   T   T
  0.4997184088763582  0.4999999834549271  0.2502725250390850   T   T   T
  0.2230999806898808  0.4999999834549271  0.2373300061288361   F   F   F
  0.2292786448892365  0.4999999834549271  0.4909764061057911   T   T   T
  0.0165499428614950  0.0000000000000000  0.0724399929615203   F   F   F
  0.0171105933391039 -0.0000000000000000  0.3235111119938101   T   T   T
  0.7065500186540348  0.0000000000000000  0.1648900131673159   F   F   F
  0.7055582962087358 -0.0000000000000000  0.4154560826110054   T   T   T
  0.5165500288385019  0.4999999834549271  0.0724399929615203   F   F   F
  0.5171106793161104  0.4999999834549271  0.3235111119938101   T   T   T
  0.2065500378283858  0.4999999834549271  0.1648900131673159   F   F   F
  0.2055583153830798  0.4999999834549271  0.4154560826110054   T   T   T
  0.8760500475417032  0.0000000000000000  0.1466400051610108   F   F   F
  0.8768362403859457 -0.0000000000000000  0.3979441704591145   T   T   T
  0.8470499807764895  0.0000000000000000  0.0906900009678253   F   F   F
  0.8469035926526135 -0.0000000000000000  0.3419199470180584   T   T   T
  0.3760499615646893  0.4999999834549271  0.1466400051610108   F   F   F
  0.3768361544089320  0.4999999834549271  0.3979441704591145   T   T   T
  0.3470499999508405  0.4999999834549271  0.0906900009678253   F   F   F
  0.3469036118269578  0.4999999834549271  0.3419199470180584   T   T   T
 
  0.00000000E+00  0.00000000E+00  0.00000000E+00
  0.00000000E+00  0.00000000E+00  0.00000000E+00
  0.00000000E+00  0.00000000E+00  0.00000000E+00
  0.00000000E+00  0.00000000E+00  0.00000000E+00
  0.00000000E+00  0.00000000E+00  0.00000000E+00
  0.00000000E+00  0.00000000E+00  0.00000000E+00
  0.00000000E+00  0.00000000E+00  0.00000000E+00
  0.00000000E+00  0.00000000E+00  0.00000000E+00
  0.00000000E+00  0.00000000E+00  0.00000000E+00
  0.00000000E+00  0.00000000E+00  0.00000000E+00
  0.00000000E+00  0.00000000E+00  0.00000000E+00
  0.00000000E+00  0.00000000E+00  0.00000000E+00
  0.00000000E+00  0.00000000E+00  0.00000000E+00
  0.00000000E+00  0.00000000E+00  0.00000000E+00
  0.00000000E+00  0.00000000E+00  0.00000000E+00
  0.00000000E+00  0.00000000E+00  0.00000000E+00
  0.00000000E+00  0.00000000E+00  0.00000000E+00
  0.00000000E+00  0.00000000E+00  0.00000000E+00
  0.00000000E+00  0.00000000E+00  0.00000000E+00
  0.00000000E+00  0.00000000E+00  0.00000000E+00
  0.00000000E+00  0.00000000E+00  0.00000000E+00
  0.00000000E+00  0.00000000E+00  0.00000000E+00
  0.00000000E+00  0.00000000E+00  0.00000000E+00
  0.00000000E+00  0.00000000E+00  0.00000000E+00
  0.00000000E+00  0.00000000E+00  0.00000000E+00
  0.00000000E+00  0.00000000E+00  0.00000000E+00
  0.00000000E+00  0.00000000E+00  0.00000000E+00
  0.00000000E+00  0.00000000E+00  0.00000000E+00
  0.00000000E+00  0.00000000E+00  0.00000000E+00
  0.00000000E+00  0.00000000E+00  0.00000000E+00
  0.00000000E+00  0.00000000E+00  0.00000000E+00
  0.00000000E+00  0.00000000E+00  0.00000000E+00
  0.00000000E+00  0.00000000E+00  0.00000000E+00
  0.00000000E+00  0.00000000E+00  0.00000000E+00
  0.00000000E+00  0.00000000E+00  0.00000000E+00
  0.00000000E+00  0.00000000E+00  0.00000000E+00
  0.00000000E+00  0.00000000E+00  0.00000000E+00
  0.00000000E+00  0.00000000E+00  0.00000000E+00
  0.00000000E+00  0.00000000E+00  0.00000000E+00
  0.00000000E+00  0.00000000E+00  0.00000000E+00
  0.00000000E+00  0.00000000E+00  0.00000000E+00
  0.00000000E+00  0.00000000E+00  0.00000000E+00
  0.00000000E+00  0.00000000E+00  0.00000000E+00
  0.00000000E+00  0.00000000E+00  0.00000000E+00
  0.00000000E+00  0.00000000E+00  0.00000000E+00
  0.00000000E+00  0.00000000E+00  0.00000000E+00
  0.00000000E+00  0.00000000E+00  0.00000000E+00
  0.00000000E+00  0.00000000E+00  0.00000000E+00
  0.00000000E+00  0.00000000E+00  0.00000000E+00
  0.00000000E+00  0.00000000E+00  0.00000000E+00
