Nickel zinc boride (3/1/2)
1.0
        9.5101003647         0.0000000000         0.0000000000
        0.0000000000         2.8921000957         0.0000000000
       -6.4946115869         0.0000000000        33.1155471160
   Ni   Zn    B
   24   10    16
Selective dynamics
Cartesian
   -0.414617    0.000000    6.009892 F F F 
   -2.038270    0.000000   14.288779 T T T
    5.750004    0.000000    1.849421 F F F 
    4.126351    0.000000   10.128308 T T T
    4.340434    1.446050    6.009892 F F F 
    2.716781    1.446050   14.288779 T T T
    0.994954    1.446050    1.849421 F F F 
   -0.628699    1.446050   10.128308 T T T
    2.166922    0.000000    6.327884 F F F 
    0.543269    0.000000   14.606771 T T T
    3.168466    0.000000    1.531429 F F F 
    1.544813    0.000000    9.810315 T T T
    6.921972    1.446050    6.327884 F F F 
    5.298320    1.446050   14.606771 T T T
    7.923516    1.446050    1.531429 F F F 
    6.299863    1.446050    9.810315 T T T
    3.984075    0.000000    3.954907 F F F 
    2.360422    0.000000   12.233794 T T T
    1.351313    0.000000    3.904406 F F F 
   -0.272340    0.000000   12.183293 T T T
   -0.770976    1.446050    3.954907 F F F 
   -2.394629    1.446050   12.233794 T T T
    6.106363    1.446050    3.904406 F F F 
    4.482710    1.446050   12.183293 T T T
    0.000000    0.000000    0.000000 F F F 
   -3.247306    0.000000   16.557774 T T T
   -1.623653    0.000000    8.278887 T T T
    5.335388    0.000000    7.859313 F F F 
    3.711735    0.000000   16.138201 T T T
    4.755050    1.446050    0.000000 F F F 
    1.507744    1.446050   16.557774 T T T
    3.131397    1.446050    8.278887 T T T
    0.580337    1.446050    7.859313 F F F 
   -1.043316    1.446050   16.138201 T T T
   -0.313078    0.000000    2.398890 F F F 
   -1.936731    0.000000   10.677777 T T T
    5.648465    0.000000    5.460423 F F F 
    4.024812    0.000000   13.739309 T T T
    4.441973    1.446050    2.398890 F F F 
    2.818320    1.446050   10.677777 T T T
    0.893415    1.446050    5.460423 F F F 
   -0.730238    1.446050   13.739309 T T T
    7.378954    0.000000    4.856064 F F F 
    5.755301    0.000000   13.134951 T T T
    7.466534    0.000000    3.003249 F F F 
    5.842881    0.000000   11.282136 T T T
    2.623903    1.446050    4.856064 F F F 
    1.000250    1.446050   13.134951 T T T
    2.711484    1.446050    3.003249 F F F 
    1.087831    1.446050   11.282136 T T T
	