Nickel zinc boride (2/1/1)
1.0
        9.5296001434         0.0000000000         0.0000000000
        0.0000000000         2.8371000290         0.0000000000
       -1.2591798252         0.0000000000        23.9625389592
   Ni   Zn    B
   16   8     8
Selective dynamics
Cartesian
    1.993122    0.000000    5.677984 F F F
    1.678327    0.000000   11.668619 T T T
    2.895123    0.000000    3.292753 F F F
    2.580328    0.000000    9.283387 T T T
    6.757921    1.418550    5.677984 F F F
    6.443126    1.418550   11.668619 T T T
    7.659923    1.418550    3.292753 F F F
    7.345128    1.418550    9.283387 T T T
    4.577816    0.000000    5.464358 F F F
    4.263021    0.000000   11.454993 T T T
    0.310429    0.000000    3.506379 F F F
   -0.004366    0.000000    9.497014 T T T
   -0.186984    1.418550    5.464358 F F F
   -0.501779    1.418550   11.454993 T T T
    5.075229    1.418550    3.506379 F F F
    4.760434    1.418550    9.497014 T T T
    8.623554    0.000000    1.290682 F F F
    8.308759    0.000000    7.281318 T T T
    6.109087    0.000000    1.689419 F F F
    5.794292    0.000000    7.680054 T T T
    3.858754    1.418550    1.290682 F F F
    3.543959    1.418550    7.281318 T T T
    1.344286    1.418550    1.689419 F F F
    1.029491    1.418550    7.680054 T T T
    8.079917    0.000000    4.793886 F F F
    7.765122    0.000000   10.784521 T T T
    6.337929    0.000000    4.176850 F F F
    6.023134    0.000000   10.167485 T T T
    3.315116    1.418550    4.793886 F F F
    3.000321    1.418550   10.784521 T T T
    1.573129    1.418550    4.176850 F F F
    1.258334    1.418550   10.167485 T T T
