Nickel zinc boride (2/1/1)              
   1.00000000000000     
     9.5242481231999996    0.0000000000000000    0.0000000000000000
     0.0000000000000000    2.8023560047000000    0.0000000000000000
    -1.0730181131000001    0.0000000000000000   23.9508313985000001
   Ni   Zn   B    H 
    16    10     8     4
Selective dynamics
Direct
  0.5900799977103830  0.0000000000000000  0.1664500203216193   F   F   F
  0.5705138238127418 -0.0000000000000000  0.4182164398840020   T   T   T
  0.6715800251610986  0.0000000000000000  0.0669100207561186   F   F   F
  0.6573557342254177 -0.0000000000000000  0.3194846268381120   T   T   T
  0.0900799101024177  0.4999999998751079  0.1664500203216193   F   F   F
  0.0705137799877591  0.4999999998751079  0.4182164398840020   T   T   T
  0.1715800001302554  0.4999999998751079  0.0669100207561186   F   F   F
  0.1573557592772648  0.4999999998751079  0.3194846268381120   T   T   T
  0.8601300526891649  0.0000000000000000  0.1575350080012825   F   F   F
  0.8400798496308949 -0.0000000000000000  0.4117689667085825   T   T   T
  0.4015300185857242  0.0000000000000000  0.0758250181709244   F   F   F
  0.3871333740846912 -0.0000000000000000  0.3275189893965489   T   T   T
  0.3601300276583217  0.4999999998751079  0.1575350080012825   F   F   F
  0.3400797995062049  0.4999999998751079  0.4117689667085825   T   T   T
  0.9015299685450273  0.4999999998751079  0.0758250181709244   F   F   F
  0.8871332739613041  0.4999999998751079  0.3275189893965489   T   T   T
  0.2616599917368490  0.0000000000000000  0.2333599863406022   F   F   F
  0.2251985029922791 -0.0000000000000000  0.4882912200618484   T   T   T
  0.0000000000000000  0.0000000000000000  0.0000000000000000   F   F   F
  0.9629017089455929 -0.0000000000000000  0.5075042051539783   T   T   T
  0.9999999998701838  0.0000000000000000  0.2499999902038894   F   F   F
  0.7616599666850021  0.4999999998751079  0.2333599863406022   F   F   F
  0.7251985030342791  0.4999999998751079  0.4882912200618484   T   T   T
  0.5000000000420002  0.4999999998751079  0.0000000000000000   F   F   F
  0.4629017090085896  0.4999999998751079  0.5075042051539783   T   T   T
  0.5000000249010341  0.4999999998751079  0.2499999902038894   F   F   F
  0.2239299720852230  0.0000000000000000  0.1295550155805572   F   F   F
  0.2064653790041419 -0.0000000000000000  0.3820552491030513   T   T   T
  0.0377300332655750  0.0000000000000000  0.1038049806970704   F   F   F
  0.0198222714513193 -0.0000000000000000  0.3565847666994419   T   T   T
  0.7239300596931884  0.4999999998751079  0.1295550155805572   F   F   F
  0.7064654040349924  0.4999999998751079  0.3820552491030513   T   T   T
  0.5377299582360351  0.4999999998751079  0.1038049806970704   F   F   F
  0.5198221150505182  0.4999999998751079  0.3565847666994419   T   T   T
  0.8748806444501495  0.4999999998751079  0.5410728276141887   T   T   T
  0.6137116432275566  0.4999999998751079  0.5464243553995078   T   T   T
  0.3748806444081492 -0.0000000000000000  0.5410728276141887   T   T   T
  0.1137116431645598 -0.0000000000000000  0.5464243553995078   T   T   T
 
  0.00000000E+00  0.00000000E+00  0.00000000E+00
  0.00000000E+00  0.00000000E+00  0.00000000E+00
  0.00000000E+00  0.00000000E+00  0.00000000E+00
  0.00000000E+00  0.00000000E+00  0.00000000E+00
  0.00000000E+00  0.00000000E+00  0.00000000E+00
  0.00000000E+00  0.00000000E+00  0.00000000E+00
  0.00000000E+00  0.00000000E+00  0.00000000E+00
  0.00000000E+00  0.00000000E+00  0.00000000E+00
  0.00000000E+00  0.00000000E+00  0.00000000E+00
  0.00000000E+00  0.00000000E+00  0.00000000E+00
  0.00000000E+00  0.00000000E+00  0.00000000E+00
  0.00000000E+00  0.00000000E+00  0.00000000E+00
  0.00000000E+00  0.00000000E+00  0.00000000E+00
  0.00000000E+00  0.00000000E+00  0.00000000E+00
  0.00000000E+00  0.00000000E+00  0.00000000E+00
  0.00000000E+00  0.00000000E+00  0.00000000E+00
  0.00000000E+00  0.00000000E+00  0.00000000E+00
  0.00000000E+00  0.00000000E+00  0.00000000E+00
  0.00000000E+00  0.00000000E+00  0.00000000E+00
  0.00000000E+00  0.00000000E+00  0.00000000E+00
  0.00000000E+00  0.00000000E+00  0.00000000E+00
  0.00000000E+00  0.00000000E+00  0.00000000E+00
  0.00000000E+00  0.00000000E+00  0.00000000E+00
  0.00000000E+00  0.00000000E+00  0.00000000E+00
  0.00000000E+00  0.00000000E+00  0.00000000E+00
  0.00000000E+00  0.00000000E+00  0.00000000E+00
  0.00000000E+00  0.00000000E+00  0.00000000E+00
  0.00000000E+00  0.00000000E+00  0.00000000E+00
  0.00000000E+00  0.00000000E+00  0.00000000E+00
  0.00000000E+00  0.00000000E+00  0.00000000E+00
  0.00000000E+00  0.00000000E+00  0.00000000E+00
  0.00000000E+00  0.00000000E+00  0.00000000E+00
  0.00000000E+00  0.00000000E+00  0.00000000E+00
  0.00000000E+00  0.00000000E+00  0.00000000E+00
  0.00000000E+00  0.00000000E+00  0.00000000E+00
  0.00000000E+00  0.00000000E+00  0.00000000E+00
  0.00000000E+00  0.00000000E+00  0.00000000E+00
  0.00000000E+00  0.00000000E+00  0.00000000E+00
