Nickel zinc boride (2/1/1)              
1.0
        9.5396890640         0.0000000000         0.0000000000
        0.0000000000         2.7716467381         0.0000000000
       -1.2135895241         0.0000000000        24.3997410343
   Ni   Zn    B    H
   16    8    8    1
Selective dynamics
Cartesian
     2.006350756         0.000000000         5.781579971 F F F
     1.722979307         0.000000000        11.792792320 F F F
     2.904635906         0.000000000         3.352829695 F F F
     2.577879667         0.000000000         9.422316551 F F F
     6.776194572         1.385823369         5.781579971 F F F
     6.492822647         1.385823369        11.792792320 F F F
     7.674480438         1.385823369         3.352829695 F F F
     7.347723484         1.385823369         9.422316551 F F F
     4.593362808         0.000000000         5.564056396 F F F
     4.300127029         0.000000000        11.697181702 F F F
     0.317623824         0.000000000         3.570353508 F F F
    -0.006114900         0.000000000         9.679025650 F F F
    -0.176481664         1.385823369         5.564056396 F F F
    -0.469717413         1.385823369        11.697181702 F F F
     5.087468147         1.385823369         3.570353508 F F F
     4.763729572         1.385823369         9.679025650 F F F
     8.635210991         0.000000000         1.314230800 F F F
     8.326719284         0.000000000         7.427242279 F F F
     6.118862629         0.000000000         1.720242858 F F F
     5.804679871         0.000000000         7.814775467 F F F
     3.865366697         1.385823369         1.314230800 F F F
     3.556873798         1.385823369         7.427242279 F F F
     1.349017262         1.385823369         1.720242858 F F F
     1.034834862         1.385823369         7.814775467 F F F
     8.097859383         0.000000000         4.881351471 F F F
     7.811272144         0.000000000        11.001029968 F F F
     6.352818012         0.000000000         4.253057480 F F F
     6.039247036         0.000000000        10.407646179 F F F
     3.328012943         1.385823369         4.881351471 F F F
     3.041427374         1.385823369        11.001029968 F F F
     1.582973599         1.385823369         4.253057480 F F F
     1.269402623         1.385823369        10.407646179 F F F
	 1.230522394         1.377443671        12.510779381 F F T
