Nickel zinc boride (3/1/2)              
   1.00000000000000     
     9.5155229567999999    0.0000000000000000    0.0000000000000000
     0.0000000000000000    2.8443119526000000    0.0000000000000000
    -6.7200700749999998    0.0000000000000000   33.1553294495000017
   Ni   Zn   B    H 
    24    10    16     3
Selective dynamics
Direct
  0.0803399943409744  0.0000000000000000  0.1814825053741345   F   F   F
  0.0830697379611888  0.0000000000000000  0.4339061055824728   T   T   T
  0.6427599819754022  0.0000000000000000  0.0558475176613840   F   F   F
  0.6464706501404958  0.0000000000000000  0.3064379384444896   T   T   T
  0.5803400883557757  0.4999999580566410  0.1814825053741345   F   F   F
  0.5835855425238201  0.4999999580566410  0.4345024061073189   T   T   T
  0.1427599945233240  0.4999999580566410  0.0558475176613840   F   F   F
  0.1462258918883625  0.4999999580566410  0.3060845275374833   T   T   T
  0.3583500461670184  0.0000000000000000  0.1910850085700346   F   F   F
  0.3561727389013193  0.0000000000000000  0.4401943495080826   T   T   T
  0.3647500266358534  0.0000000000000000  0.0462450180546483   F   F   F
  0.3703158242686261  0.0000000000000000  0.2974167469565143   T   T   T
  0.8583500462300719  0.4999999580566410  0.1910850085700346   F   F   F
  0.8589600792802307  0.4999999580566410  0.4410504362717197   T   T   T
  0.8647500768275265  0.4999999580566410  0.0462450180546483   F   F   F
  0.8693020172268587  0.4999999580566410  0.2970606958252366   T   T   T
  0.5004899841531127  0.0000000000000000  0.1194275083295793   F   F   F
  0.5049668411744375  0.0000000000000000  0.3713869304845185   T   T   T
  0.2226100611032535  0.0000000000000000  0.1179025147059392   F   F   F
  0.2249355564853643  0.0000000000000000  0.3683093549031610   T   T   T
  0.0004899277610448  0.4999999580566410  0.1194275083295793   F   F   F
  0.0037122822958257  0.4999999580566410  0.3707382924640183   T   T   T
  0.7226100861780722  0.4999999580566410  0.1179025147059392   F   F   F
  0.7274561335084497  0.4999999580566410  0.3688960520456436   T   T   T
  0.0000000000000000  0.0000000000000000  0.0000000000000000   F   F   F
  0.0062622943411622  0.0000000000000000  0.5030673657072493   T   T   T
  0.0003376423586745  0.0000000000000000  0.2501231673800396   T   T   T
  0.7231000653037185  0.0000000000000000  0.2373300158571823   F   F   F
  0.7301244825137210  0.0000000000000000  0.4914929651121117   T   T   T
  0.4999999499344412  0.4999999580566410  0.0000000000000000   F   F   F
  0.5103107762089415  0.4999999580566410  0.5013554213396747   T   T   T
  0.5003679049124615  0.4999999580566410  0.2503468371492725   T   T   T
  0.2230999775944085  0.4999999580566410  0.2373300158571823   F   F   F
  0.2352969405058992  0.4999999580566410  0.4904910403534341   T   T   T
  0.0165499456969869  0.0000000000000000  0.0724399915150329   F   F   F
  0.0202343582200348  0.0000000000000000  0.3234557194844178   T   T   T
  0.7065500142587098  0.0000000000000000  0.1648900171336507   F   F   F
  0.7105335397292266  0.0000000000000000  0.4168140958611254   T   T   T
  0.5165500459121830  0.4999999580566410  0.0724399915150329   F   F   F
  0.5212536092909051  0.4999999580566410  0.3240943937000533   T   T   T
  0.2065500393125106  0.4999999580566410  0.1648900171336507   F   F   F
  0.2071258364698027  0.4999999580566410  0.4155716224135837   T   T   T
  0.8760500959027553  0.0000000000000000  0.1466400131057455   F   F   F
  0.8808235832367959  0.0000000000000000  0.3977625342667631   T   T   T
  0.8470499694006790  0.0000000000000000  0.0906900027212743   F   F   F
  0.8499343555771286  0.0000000000000000  0.3415443891763718   T   T   T
  0.3760499956875591  0.4999999580566410  0.1466400131057455   F   F   F
  0.3791475954565104  0.4999999580566410  0.3975022278368577   T   T   T
  0.3470500194662449  0.4999999580566410  0.0906900027212743   F   F   F
  0.3496585692415319  0.4999999580566410  0.3416369681666219   T   T   T
  0.3861678845641993  0.4999999580566410  0.5307446631149565   T   T   T
  0.1135125347093152  0.4999999580566410  0.5274873057367973   T   T   T
  0.8728830621129385  0.0000000000000000  0.5312011896733152   T   T   T
 
  0.00000000E+00  0.00000000E+00  0.00000000E+00
  0.00000000E+00  0.00000000E+00  0.00000000E+00
  0.00000000E+00  0.00000000E+00  0.00000000E+00
  0.00000000E+00  0.00000000E+00  0.00000000E+00
  0.00000000E+00  0.00000000E+00  0.00000000E+00
  0.00000000E+00  0.00000000E+00  0.00000000E+00
  0.00000000E+00  0.00000000E+00  0.00000000E+00
  0.00000000E+00  0.00000000E+00  0.00000000E+00
  0.00000000E+00  0.00000000E+00  0.00000000E+00
  0.00000000E+00  0.00000000E+00  0.00000000E+00
  0.00000000E+00  0.00000000E+00  0.00000000E+00
  0.00000000E+00  0.00000000E+00  0.00000000E+00
  0.00000000E+00  0.00000000E+00  0.00000000E+00
  0.00000000E+00  0.00000000E+00  0.00000000E+00
  0.00000000E+00  0.00000000E+00  0.00000000E+00
  0.00000000E+00  0.00000000E+00  0.00000000E+00
  0.00000000E+00  0.00000000E+00  0.00000000E+00
  0.00000000E+00  0.00000000E+00  0.00000000E+00
  0.00000000E+00  0.00000000E+00  0.00000000E+00
  0.00000000E+00  0.00000000E+00  0.00000000E+00
  0.00000000E+00  0.00000000E+00  0.00000000E+00
  0.00000000E+00  0.00000000E+00  0.00000000E+00
  0.00000000E+00  0.00000000E+00  0.00000000E+00
  0.00000000E+00  0.00000000E+00  0.00000000E+00
  0.00000000E+00  0.00000000E+00  0.00000000E+00
  0.00000000E+00  0.00000000E+00  0.00000000E+00
  0.00000000E+00  0.00000000E+00  0.00000000E+00
  0.00000000E+00  0.00000000E+00  0.00000000E+00
  0.00000000E+00  0.00000000E+00  0.00000000E+00
  0.00000000E+00  0.00000000E+00  0.00000000E+00
  0.00000000E+00  0.00000000E+00  0.00000000E+00
  0.00000000E+00  0.00000000E+00  0.00000000E+00
  0.00000000E+00  0.00000000E+00  0.00000000E+00
  0.00000000E+00  0.00000000E+00  0.00000000E+00
  0.00000000E+00  0.00000000E+00  0.00000000E+00
  0.00000000E+00  0.00000000E+00  0.00000000E+00
  0.00000000E+00  0.00000000E+00  0.00000000E+00
  0.00000000E+00  0.00000000E+00  0.00000000E+00
  0.00000000E+00  0.00000000E+00  0.00000000E+00
  0.00000000E+00  0.00000000E+00  0.00000000E+00
  0.00000000E+00  0.00000000E+00  0.00000000E+00
  0.00000000E+00  0.00000000E+00  0.00000000E+00
  0.00000000E+00  0.00000000E+00  0.00000000E+00
  0.00000000E+00  0.00000000E+00  0.00000000E+00
  0.00000000E+00  0.00000000E+00  0.00000000E+00
  0.00000000E+00  0.00000000E+00  0.00000000E+00
  0.00000000E+00  0.00000000E+00  0.00000000E+00
  0.00000000E+00  0.00000000E+00  0.00000000E+00
  0.00000000E+00  0.00000000E+00  0.00000000E+00
  0.00000000E+00  0.00000000E+00  0.00000000E+00
  0.00000000E+00  0.00000000E+00  0.00000000E+00
  0.00000000E+00  0.00000000E+00  0.00000000E+00
  0.00000000E+00  0.00000000E+00  0.00000000E+00
